18
Lattice="3.5095183849334717 0.0 -0.054645836353302 1.7340239686690346 6.546625804626587 0.9927277565002441 0.0 0.0 11.775160789489746" Properties=species:S:1:pos:R:3 pbc="T T T"
Hf       3.91745716       3.59199021       8.19698199
N        2.17048730       2.19342757       8.63075538
As       2.14822624       5.90289673       9.26967826
Hf       3.91205890       5.55435632       2.34876472
Hf       2.16680321       0.78654368      10.19571374
N        2.17154082       1.54441068       3.20543660
N        3.93095792       3.43128641       2.52491064
As       3.92256984       2.84548079      10.90809297
Hf       2.17467548       1.19146178       6.80075168
Hf       2.17231567       2.66320017       1.42326975
As       2.15728452       5.26507309      11.93951340
N        2.15660360       5.51155894       3.56751569
As       3.91212928       5.51598977       6.18533439
N        2.16277846       3.43069056       6.81948439
N        2.16196638       0.83949298       0.51535513
Hf       0.42082414       0.63693202       3.87519153
N        3.92288229       1.91516756       5.51353878
Hf       2.14560228       3.47517364       4.62808849
