18
Lattice="3.5066311650072044 0.006101659753133127 -0.028214894066811397 1.7495214255339588 6.284377435412567 0.8684933163279623 0.09872489070388962 -0.3474173489955336 12.420191153867554" Properties=species:S:1:pos:R:3:forces:R:3 structure_index=0 total_energy=-165.2240753173828 stress="-0.01996873877942562 3.230071524740197e-05 -1.114444876293419e-05 3.278686563135125e-05 -0.02185152843594551 0.000330337235936895 -1.0452334208821412e-05 0.00032923766411840916 -0.026041878387331963" pbc="T T T"
Hf       3.98854047       3.38207081       8.58241951      -0.00026410       0.00816172       0.00280166
N        2.24202374       1.93482074       9.27583122      -0.00033165      -0.00587776       0.00982496
As       2.23820279       5.60757959       9.53242325      -0.00031534      -0.00158116       0.01256235
Hf       3.93663846       5.21144941       2.52689636      -0.00003025       0.00147673       0.01539379
Hf       2.25600373       0.42440424      10.71737961      -0.00001161      -0.01065171       0.01108443
N        2.19643282       1.23095310       3.31276838       0.00027987      -0.01498041      -0.02174516
N        3.93616078       3.21434423       2.07884234       0.00054004       0.01181310      -0.03669549
As       4.00922407       2.90220865      11.29155766       0.00054287      -0.02505389      -0.02159893
Hf       2.22834636       1.07378068       7.29629488      -0.00040717      -0.00371867       0.02062780
Hf       2.17995355       2.30119431       1.53688826       0.00038212      -0.00481185      -0.00880983
As       2.26074584       4.42602123      12.24514484       0.00060839      -0.02342160      -0.02609690
N        2.19294621       4.98726327       3.68799214       0.00002408      -0.01433181       0.01125884
As       3.96844123       5.14540251       6.43895365      -0.00042701       0.03045768       0.01688698
N        2.22487537       3.19362891       7.24439839      -0.00034571       0.00102520       0.01637924
N        2.17365447       0.60348964       0.37266915       0.00033807      -0.01453596       0.00149919
Hf       0.45116025       0.44627932       4.15483666      -0.00004451       0.01159155      -0.00223425
N        3.96794118       1.88658979       5.67453451      -0.00003597       0.03634827      -0.02672754
Hf       2.20817045       3.21876390       5.15435596      -0.00050209       0.01809043       0.02558911
