9
Lattice="4.129247188568115 0.0 -0.008322572335600853 -0.017039429784352484 6.651707282303861 -3.9114060401916504 0.0 0.0 7.646897792816162" Properties=species:S:1:pos:R:3 pbc="T T T"
Gd       1.51732417       4.78025290       3.12516108
Gd       3.59045030       1.81097585       2.86913602
Pt       1.52513289       2.64105201       4.99264591
Gd       3.59335888       0.75471815       6.14569255
Gd       1.52509980       3.04284849       0.14269855
Pt       1.52972491       0.36926196       1.10960093
Gd       3.58183514       5.09684305      -1.73647049
Pt       3.58667392       4.55763945       1.25169282
Pt       1.51487969       6.40499623       0.16048685
