15
Lattice="4.831682530565844 0.10654082628915333 1.3162274184502436 1.0866330218340234 5.56181987983037 3.3029366578024315 0.01759531058923263 0.0479678845562155 6.178635242799407" Properties=species:S:1:pos:R:3:forces:R:3 structure_index=0 total_energy=-118.30171203613281 stress="0.01024130079895258 -0.002969315042719245 -0.00017758049943950027 -0.002969043795019388 0.018550029024481773 -0.0030567036010324955 -0.00017863269022200257 -0.003057915950194001 0.015936395153403282" pbc="T T T"
Fe       1.30691597       2.37927128       2.16520949       0.03439733       0.03197173       0.01304816
Fe       3.43588867       0.27046764       2.72857149      -0.03465106      -0.01644658      -0.00787026
Fe       2.58047972       0.73778968       6.67408819      -0.00386067       0.00456988      -0.01288389
Fe       2.75169106       5.11738052       8.03946304      -0.01367054      -0.02555205       0.00977290
Fe       0.30664994       1.44524823       6.07408534      -0.01094476      -0.02076095       0.01298590
Fe       1.71016468       4.35657297       3.97776914       0.00276234      -0.00479995       0.00304310
Fe       4.50261358       1.25385102       4.99212359       0.01064376       0.01553443      -0.00873734
B        5.53588755       5.32167370       9.85773580      -0.00576630      -0.00408766      -0.00729462
Fe       2.18939400       1.92926399       4.38022438       0.00068069      -0.00940862       0.01273543
Fe       4.16884235       3.86638154       4.17080577      -0.00239201       0.00478351      -0.00509349
P        1.19776203       0.02172360       2.39667608      -0.01632860       0.00571591      -0.00731516
Rh       5.34227441       4.21806367       7.86728031       0.00172714      -0.00242625      -0.00478803
Rh       3.14652229       3.23113127       6.40013321       0.01238133       0.02316308      -0.01073826
P        3.57105848       2.60083323       2.51473991       0.01816415      -0.00270110       0.00476696
B        5.18877486       3.06630798       5.82437919       0.00685720       0.00044457       0.00836877
