15
Lattice="3.63842511177063 0.0 0.0034757868852466345 0.029103890967572394 8.158629005531525 -0.01269850879907608 0.0 0.0 8.161490440368652" Properties=species:S:1:pos:R:3 pbc="T T T"
O        2.44281140       0.22179425       6.93798554
Eu       0.66394637       2.06564495       2.97228601
Eu       2.04603058       2.55232033       6.82366675
O        2.46462578       2.64404817       4.50519891
Eu       2.06015154       6.36910830       2.49919887
O        0.29362823       6.50620282       0.69302765
Eu       0.67973401       6.83867446       6.35043899
Fe       3.21632418       4.45392969       4.66580785
Fe       3.19239342       0.37328679       0.58871887
O        0.29790898       4.55574225       2.63042705
O        2.45199461       0.53049882       2.40388461
O        0.29971584       4.34609439       6.68863483
O        0.28046423       2.39717440       0.47060145
Fe       0.26313805       4.45203801       0.58101401
O        2.47700639       6.26343944       4.81221800
