4
Lattice="2.59642957509766 -0.006646652920846819 0.004724039533029164 0.010604497077145522 4.097714904523164 -1.1879458814144692 -0.009648261845162672 0.08075602298751887 4.265628869046307" Properties=species:S:1:pos:R:3:forces:R:3 structure_index=0 total_energy=-29.747949600219727 stress="-0.11493902653455734 -0.01871725544333458 -0.014723471365869045 -0.01871715858578682 -0.07037660479545593 -0.03283199667930603 -0.014723495580255985 -0.032831739634275436 -0.051886677742004395" pbc="T T T"
Ni       0.29353462       1.92753291       1.25284653       0.00045226      -0.00104182       0.00043480
Co       0.29458111       4.01649823       2.79300687      -0.00115533       0.00068180      -0.00076152
Fe       1.58791258       1.96457138       3.38808808      -0.00137529       0.00017177       0.00049165
Fe       1.59627170       3.97300114       0.66242491       0.00207836       0.00018824      -0.00016493
