4
Lattice="2.761456357868791 -0.0022919781953119334 -0.7293047634793931 -0.636222460883391 4.267322977338716 -2.4247657751058664 0.24152461363156627 0.19351264122561818 6.500977389795126" Properties=species:S:1:pos:R:3:forces:R:3 structure_index=0 total_energy=-4.132493495941162 stress="-0.000931115762796253 -0.011695456691086292 0.006264322437345982 -0.011695567518472672 0.04046850651502609 -0.05114402249455452 0.006264349911361933 -0.051144056022167206 0.018530838191509247" pbc="T T T"
Zn       0.72582900       2.27319412       4.75468518       0.00246642       0.02451504       0.00814701
Cd       2.30654255       0.29557438      -0.43364023       0.00531357       0.03727884       0.01963329
Cd      -0.28868949       3.71752255       0.90633018      -0.00601309      -0.03740710      -0.02087652
Zn       1.53242606       1.93259556       2.21700923      -0.00176689      -0.02438679      -0.00690378
