8
Lattice="3.408036215206448 0.0317335939399869 -0.4416954487790653 -0.3906189052912582 5.049531091851531 -0.8789964782194379 -0.005760974512454076 -0.0028703036575052107 7.795450535318327" Properties=species:S:1:pos:R:3:forces:R:3 structure_index=0 total_energy=-49.334869384765625 stress="0.03960339352488518 0.010776744224131107 -0.0021526578348129988 0.010776867158710957 0.05105448514223099 -0.006555670406669378 -0.0021525153424590826 -0.006554431281983852 0.05267362296581268" pbc="T T T"
P        2.42574385       0.20060543       6.37821365       0.01096394      -0.01215130       0.00222806
P        1.33213482       4.30275478       1.86937439       0.01212971       0.00734857      -0.00826929
Rh       2.34460975       1.39729541       2.60747011      -0.04203037       0.02215049      -0.00165586
P        2.10017453       1.85633974       4.92782302       0.00305196       0.00020409       0.00300920
P        0.77751145       2.99632633       0.00375595       0.00080231      -0.00077657      -0.00033097
Rh       0.36820765       3.57613182       5.57929477       0.00698689      -0.01262632      -0.00010143
P       -0.19453273       3.52148191       3.26315725      -0.00200398       0.00608715       0.01408321
P        2.53091466       1.60251273       0.32905253       0.01009969      -0.01023591      -0.00896284
