7
Lattice="4.4825053215026855 0.0 1.0518763065338135 2.116018674658334 3.948532977224027 1.055196762084961 0.0 0.0 10.075712203979492" Properties=species:S:1:pos:R:3 pbc="T T T"
Li       2.38474098       0.47846210       4.41944305
Li       2.28100301       3.09718073       4.86317764
Eu       3.48259746       1.13112116       9.81846583
Li       1.68470694       2.73798512       7.42150661
Li       1.78470227       0.11477544       6.97827144
Tl       4.27420143       1.60736243       6.44839287
Eu       5.06923744       2.08427350       3.06999184
