8
Lattice="5.8112897872924805 0.0 -0.00015543220797553658 -0.00017489893169240253 6.659198281852374 0.0013674922520294785 0.0 0.0 7.186662197113037" Properties=species:S:1:pos:R:3 pbc="T T T"
Eu       4.10028819       4.46035630       3.81087219
Eu       4.09724271       1.37825590       5.60646369
Eu       1.19154185       6.00195455       5.61658966
Pb       1.19274109       2.49100384       3.81106257
Eu       1.19303140       5.99732092       2.01502602
Eu       4.09771142       1.37603057       2.01867572
Pb       4.09767081       4.88725753       0.21831187
Eu       1.19092994       2.92026416       0.21956598
