10
Lattice="3.193437337875366 0.0 0.8297295570373535 1.3888804178643845 5.29672521600872 1.2350815534591675 0.0 0.0 6.552583694458008" Properties=species:S:1:pos:R:3 pbc="T T T"
Eu       2.77229111       0.26794705       6.33116571
C        2.19907990       1.33165257       1.97276424
Eu       1.86531330       4.71612011       3.27621274
Mn       1.71790465       1.72148725       3.82564204
Mn       0.72147359       2.49548853       1.12115851
C        2.43711604       3.64954791       7.63689543
Mn       2.91522802       3.27715255       5.79928815
C        1.24019070       2.30761159       5.67188064
C        3.01466550       5.15850731       5.41204287
C        3.39799127       2.69435232       3.93633116
