19
Lattice="6.342727072369309 -0.012377325262144535 0.8172548279271103 0.7196401725225468 6.3022289631407284 0.8159260426657555 -0.011551664115256988 -0.009337846885831766 6.396044120221087" Properties=species:S:1:pos:R:3:forces:R:3 structure_index=0 total_energy=-153.22552490234375 stress="-0.0065516335889697075 -0.015941910445690155 -0.01623735949397087 -0.01594226434826851 -0.0025398728903383017 -0.013164420612156391 -0.016238082200288773 -0.013164541684091091 -0.010422426275908947" pbc="T T T"
Fe       4.54599876       1.91169987       4.58303000      -0.01486674       0.00314361       0.01935707
Fe       1.53355557       6.05391336       6.98189713       0.03107554       0.03049684       0.02464153
Fe       6.20841722       0.04812667       4.57963040       0.00279303      -0.02203290       0.02764800
Fe       5.67904371       4.07133036       5.28085371      -0.01907746      -0.02423662      -0.02486140
Fe       0.75925950       2.52672720       2.89003668       0.01357326       0.00998392       0.01210925
Fe       1.94723131       1.91266535       6.86732804       0.01812088      -0.01033128      -0.03182025
Fe       6.41836465       1.90549056       6.13329535       0.00001718       0.00107007      -0.00666142
Fe       2.50628726       4.08174068       1.68177830      -0.02750695      -0.02463374      -0.02934554
Dy       2.48381406       4.06256558       4.85380416      -0.03037131      -0.02020224      -0.02909159
Fe       1.74492139       0.05518461       2.11687568       0.01630303      -0.01703823       0.00276730
Fe       5.74632708       1.30758922       2.16170994      -0.00819267      -0.01634945      -0.01021813
Fe       3.25385507       1.91595826       2.52588090      -0.00895500       0.00455597       0.00300111
Fe       6.78425329       5.06185900       3.34108445      -0.00258837      -0.00247055       0.01109706
Fe       4.76128541       3.77733735       2.93438710      -0.01409820       0.01955920       0.00163306
Fe       6.62868714       3.76357871       7.68446787      -0.00295297       0.02151464      -0.02728483
Dy       4.73067466       6.06215509       7.40951063       0.02465915       0.02879952       0.02863905
Fe       4.72094723       6.05451401       4.18534148       0.01597881       0.01698153       0.03439993
Fe       2.14109441       0.93378591       4.46486646      -0.02403258      -0.02350123      -0.03045312
Fe       4.35251979       2.88962413       6.98352179       0.03012151       0.02469102       0.02444300
