8
Lattice="3.463754892349243 0.0 0.00046685177949257195 -1.731947777314374 2.9994091421949305 0.0027381088584661484 0.0 0.0 11.941197395324707" Properties=species:S:1:pos:R:3 pbc="T T T"
C        0.44207060       0.24898521       4.64223484
Gd       0.44235741       2.24599219       6.34287146
Gd       0.44256206       2.24828646       3.18184277
Gd       0.44134210       0.24462850       9.19799588
C        0.44044492       2.24537880      10.64790331
N        2.16983585       1.24636092       1.44462375
Mn       0.44239456       2.24630720       0.48056156
N        2.17430690       1.24704770       7.73556463
