10
Lattice="3.1658644676208496 0.0 0.3902823030948639 0.009282458872696528 3.3028052542960773 0.0034363027662038803 0.0 0.0 12.883852005004883" Properties=species:S:1:pos:R:3 pbc="T T T"
Zn       0.30674692       1.27462073       6.08767218
O        2.03783989       1.27693386       5.09238943
Fe       0.88577265       1.27509261       1.37960394
Zn       2.18127972       2.92778449       3.95144018
Fe       1.58362027       2.92601489       8.81303285
O        2.63613574       1.28031921      13.14953702
O        0.73942538       2.92900819       2.54395704
O        0.17009180       2.92565424       7.23061148
O        3.01009657       2.92435318      10.25766146
Fe       2.77623883       2.93333660      12.06194775
