4
Lattice="3.6973993995088836 -0.0003187966673549624 -3.485616058222987e-05 0.00026385672920620543 3.6972140936307385 0.0002794720693472487 3.076745503977577e-05 -0.0002471273315469466 3.3659572663857227" Properties=species:S:1:pos:R:3:forces:R:3 structure_index=0 total_energy=-29.75684928894043 stress="-0.033287812024354935 -0.0009059278527274728 -2.6150992198381573e-05 -0.00090556382201612 -0.03711451590061188 0.00016981262888293713 -2.6233205062453635e-05 0.0001703961315797642 0.006596570368856192" pbc="T T T"
Fe       1.35840381       3.37544463       1.75894576       0.00028153       0.00098690      -0.00017796
Fe       3.20676877       1.52691594       1.75863682       0.00054427       0.00050236       0.00018213
Ni       3.20740516       3.37604773       0.07589593      -0.00153904      -0.00168611      -0.00011921
Co       1.35809982       1.52718278       0.07572055       0.00071325       0.00019685       0.00011503
