9
Lattice="4.511629127872095 -0.0219033048151594 0.01860633018978693 0.05278996872691015 8.542273591368202 -3.0280997219606878 -0.035958475625369184 -0.11228588743611936 9.214973083394527" Properties=species:S:1:pos:R:3:forces:R:3 structure_index=0 total_energy=-32.366458892822266 stress="-0.006004967726767063 0.00010140866652363911 6.924256740603596e-05 0.00010152892355108634 -0.006463891826570034 0.0025984151288866997 6.920838495716453e-05 0.0025984502863138914 -0.0076399315148591995" pbc="T T T"
Cs       1.40310906       4.08322614       4.74303880      -0.00111573      -0.00638698      -0.00738238
Cl       3.66749534       3.58041926       1.89836661       0.00032582      -0.01187432       0.00663634
Cl       1.42213100       6.96259835       2.93223605      -0.00130629       0.00034653      -0.00897042
Cl       3.66090997       6.68391374       6.56370448       0.00134862       0.04250566       0.00078732
Cl       3.64495499       1.36939353       4.68158915      -0.00023644      -0.01822278       0.04569580
Cs       1.42817009       5.09090106      -0.05719853      -0.00142647       0.00429332      -0.02442535
Cs       1.39665412       0.83055561       2.07301362       0.00001784       0.02011312      -0.00732780
Sr       3.62677391      -0.11667774       7.10038579       0.00256030       0.00170482       0.00484695
Cl       1.37642729       1.64518649       7.95045474      -0.00016765      -0.03247939      -0.00986049
