8
Lattice="3.139259099960327 0.0 0.0017665972700342536 0.0008936261947349336 5.144308012593324 -1.8148990869522095 0.0 0.0 5.44846248626709" Properties=species:S:1:pos:R:3 pbc="T T T"
Mn       2.21719003       4.42456674      -1.20205058
Mg       0.64664923       1.85338780      -0.29545254
O        2.21665619       0.61141232       4.27696641
Mn       0.64730002       4.42487429       1.52088690
O        2.21717182       3.09392614       0.58098672
Mn       2.21656635       1.85219702       2.42896824
O        0.64697237       3.10987461       3.37458061
O        0.64745398       0.59241132       1.48225442
