15
Lattice="5.945611805109734 -0.017742891442626474 2.409170060649778 -0.14349378103977034 5.812607203459445 2.1547622940106925 0.02218731524065896 0.00033255772264988333 6.8826915109978914" Properties=species:S:1:pos:R:3:forces:R:3 structure_index=0 total_energy=-107.12306213378906 stress="-0.004129961133003235 -0.00045280990889295936 -0.0012429048074409366 -0.00045250836410559714 -0.004643352702260017 0.0003630660648923367 -0.0012420529965311289 0.00036262700450606644 -0.002545563504099846" pbc="T T T"
Mn       0.12184640       2.59986025       1.77314759      -0.00449593       0.02148846      -0.01920563
Mn       3.24512846       1.78720708       4.20296978       0.03679726      -0.01635402       0.00576165
Pt       5.15641932       5.75835854       6.54216531      -0.00172611       0.00392162      -0.01407390
Mn       4.26084656       3.13947499       6.78849014      -0.03144606       0.03723396       0.00858963
Pt       2.03567519       0.74481769       2.05394330      -0.01175487      -0.01195069       0.00171648
Mn       1.20565628       3.92312718       4.33211704       0.00085181      -0.02832948      -0.02067584
Mn       0.77340863       5.46579904       8.79992844       0.00898806      -0.00807238       0.01287729
Pt       1.64623872       2.26421466       6.39732126       0.01781777      -0.00973220      -0.01535568
Pt       4.85195669       1.51826558       8.91926458       0.02058057      -0.00969203      -0.01502998
Mn       0.45041814       1.07055430       4.21894411      -0.00412314       0.02335693       0.01258571
Au       3.69444088       0.37873703       6.63912820      -0.00881219      -0.01778998       0.00926935
Pt       2.64770526       3.44715626       8.94221392      -0.00197609      -0.01164381       0.01524533
Pt       2.29763627       5.03242951       6.56007766      -0.01782765      -0.00223791       0.00791058
Pt       5.58804278       4.20629071       8.90226819       0.00578643       0.01180092       0.01049151
Au       4.00469775       4.44018736       4.34386018      -0.00865982       0.01800054      -0.00010660
