13
Lattice="4.595756477571171 0.001317072957168534 1.8469211027104564 2.28362064013161 6.066640301822737 0.9546176357308482 0.035584074304570536 0.03285035459179443 6.552203944603497" Properties=species:S:1:pos:R:3:forces:R:3 structure_index=0 total_energy=-101.45703887939453 stress="-0.005666256416589022 0.0008943439461290836 -0.000902752042748034 0.000893939461093396 -0.003585388185456395 -0.002213395433500409 -0.0009023688617162406 -0.002212763298302889 -0.004015264566987753" pbc="T T T"
Tb       1.44974122       0.82454528       1.39177898      -0.01179306      -0.03431936       0.03062642
Dy       2.86488881       4.55953848       4.50899945      -0.00630867      -0.01551402       0.01499119
Fe       2.20104456       2.77859995       6.16188851      -0.01169163      -0.03124731       0.02811330
Fe       5.24074833       2.91378494       5.24115675       0.00195524      -0.00850481      -0.01321197
Fe       6.48130959       5.74401116       8.79262616       0.00415788       0.01542081      -0.01616277
Fe       5.51384104       5.50331721       4.55749878      -0.00666515      -0.02142635       0.02133792
Fe       4.30605178       2.26155243       7.56537749       0.00702229       0.01613833      -0.01579439
Fe       3.30706288       1.93359252       3.41074694       0.00617398       0.01977753      -0.01373343
Fe       4.54835787       4.76678709       6.96029382      -0.00204705       0.01223317       0.00870743
Fe       2.58673245       3.80204395       1.81276464       0.00546865       0.01235978      -0.00910859
Fe       3.71979285       0.89165658       5.63372112       0.01107597       0.01224184      -0.01246739
Fe       4.93268796       3.80249972       2.75552946      -0.00044975       0.01315680      -0.01203460
Fe       1.47041439       0.89150324       4.72885517       0.00310132       0.00968363      -0.01126312
