7
Lattice="4.607089519500732 0.0 -1.265939712524414 -0.3150984230143088 4.60562344541559 -1.238017201423645 0.0 0.0 8.760893821716309" Properties=species:S:1:pos:R:3 pbc="T T T"
Eu       2.86890247       3.80188264       6.66947439
Eu       1.38404559       2.20707764       1.45975727
As       4.00819045       0.07931902       2.01083703
Eu      -0.17866753       3.00530671       4.69873255
As       0.56076476       1.32523098       7.35722130
Eu       2.28313044       0.70171756       4.68098371
O        2.12588656       3.00257500       4.06423916
