10
Lattice="4.24229621887207 0.0 -0.09009630233049393 -0.13262458015469736 5.951603621948131 -0.20632070302963257 0.0 0.0 5.950116157531738" Properties=species:S:1:pos:R:3 pbc="T T T"
Ba       1.77654173       5.32038134       3.94780688
Re       3.89397848       5.32186772       0.93133169
Ba       1.84306180       2.34001540       1.06871677
Sm       3.96334511       2.34204737       4.00536803
O        3.92234924       3.84382761       2.20554774
O        1.84223728       2.34673584       4.05678154
O        3.99653413       0.84705435       5.80928743
O        3.91346682       4.08870969       5.45172953
O        4.00552702       0.60092499       2.57519225
O        1.77264761       5.32251193       0.97558847
