10
Lattice="4.360704713320153 0.04724339073978317 -0.04664027105104005 -0.07001607927235019 6.03626728983852 -0.1053218087972568 0.06276488865280434 0.10533457239560508 6.0355671222494065" Properties=species:S:1:pos:R:3:forces:R:3 structure_index=0 total_energy=-75.6590576171875 stress="-0.018662668764591217 -0.007971605286002159 -0.007154618389904499 -0.007969517260789871 0.011852730996906757 -0.006519974209368229 -0.007154438178986311 -0.006521262694150209 -0.010652512311935425" pbc="T T T"
Ba       1.92919402       5.49024462       4.11757130      -0.00301490      -0.00389914       0.00154494
Re       4.07476246       5.46241243       1.07927203       0.00315959      -0.00294278      -0.00801012
Ba       1.93298145       2.41691383       1.14647451      -0.00348522       0.01203431       0.01519714
Sm       4.14380994       2.49623426       4.14621115      -0.00534322       0.00561242      -0.00101864
O        4.10201289       3.98167672       2.35444785       0.01192868      -0.00118820       0.01782516
O        1.96323570       2.47557529       4.17719687      -0.00418116       0.00201888       0.01313526
O        4.17895318       1.01277695       5.94444276      -0.00497937      -0.00234124      -0.00791296
O        4.12964759       4.28834672       5.63665995       0.02297751       0.01464444      -0.00894129
O        4.15131797       0.70302787       2.66723867      -0.01624901      -0.02104275      -0.02194823
O        1.89398529       5.44091894       1.10280478      -0.00081299      -0.00289627       0.00012864
