11
Lattice="3.7908034324645996 0.0 -1.0646734237670898 -0.4803487516520594 5.977245227416681 -1.70889413356781 0.0 0.0 7.292694091796875" Properties=species:S:1:pos:R:3 pbc="T T T"
Fe       1.38506168       1.80268502       2.03652128
Pt       1.48613430       4.49102164       2.39236660
Pt       0.66916070       2.39590909      -0.51879969
Mn       0.03477188       5.65470081       4.50986106
Fe       2.95194764       3.52614700       0.33322115
Pt       2.23115230       4.03467480       5.05533720
Pt      -0.12154206       2.93638821       3.95036273
Pt       3.58194861       0.17425529       2.57309192
Pt       0.75746311       5.15442640      -0.20420562
Pt       2.10601251       1.29536569       4.60880823
Pt       2.85114226       0.83984959      -0.02462720
