12
Lattice="4.05279541015625 0.0 0.0026193587109446526 0.0033117999079346505 4.689314626429321 -0.8475674390792847 0.0 0.0 7.476163387298584" Properties=species:S:1:pos:R:3 pbc="T T T"
Zn       2.97231000       0.10677983       0.78708747
Co       2.97223398       0.14040824       3.29773104
Co       2.97296080       2.42106669       4.13656430
Zn       0.94863687       3.61624125       3.28510231
Fe       0.94624950       1.33998829       4.93145608
Fe       2.97251523       2.49341459       1.64054889
Fe       0.94825206       3.57957104       0.77535920
Fe       2.97381156       0.09411433       5.72366959
Fe       0.94674384       1.20809760       2.43954156
Fe       0.94725568       1.31441122      -0.07165700
Co       2.97364139       2.39795275       6.59827551
Fe       0.94805208       3.63614060       5.81951527
