18
Lattice="4.600785054483489 -0.01625386219411907 -1.8063355778505175 -0.6275358375210605 5.5551650681453015 -1.6068291779007189 -0.029874334291592735 -0.018440659500934303 8.409281175704049" Properties=species:S:1:pos:R:3:forces:R:3 structure_index=0 total_energy=-120.62808227539062 stress="-0.02638167142868042 8.764298399910331e-05 -0.002609948394820094 8.816360059427097e-05 -0.0246551726013422 -0.0031783052254468203 -0.002610068069770932 -0.0031776258256286383 -0.02639206312596798" pbc="T T T"
Mn       3.71248963       0.69807771       2.63368699      -0.00479905       0.00819784      -0.00068552
F        2.84482003       3.99221100       3.58926786       0.00465921       0.00758712       0.01725933
O        0.86592619       2.09362302      -0.98281139       0.02112818      -0.01830690      -0.01440704
Mn       1.78722643       1.47931561       5.74539735      -0.00078435      -0.00382060      -0.00037367
Mn       0.89995357       3.69170391       3.05986305      -0.00162709      -0.00637094       0.00290034
O        3.08180718       1.41788874       4.31353174      -0.00309407       0.00717203       0.00061600
Mn       4.06243565       3.00637227       4.66712450       0.01053239      -0.00215623       0.00241240
Mn       2.52923332       3.42573568      -0.45957565       0.00529371       0.02766019      -0.01176082
O        0.47655936       2.56676910       4.84930083       0.00103769       0.00630922       0.00414956
Mn       0.26150233       1.02331619       0.91060816      -0.01492852       0.01620093      -0.00987624
O        0.75849988      -0.01626864       5.16466909      -0.00193326       0.01040381      -0.01861676
F        1.92312476       4.36910587       1.16725264       0.01851861      -0.01009499       0.01607120
F        3.52569516       5.42802377      -0.70850100      -0.02622715       0.00956295      -0.01808158
O        4.21467132       2.69303189       0.13244260      -0.02749404       0.01424311      -0.00286625
F        2.93154972       0.48525725       6.89299761      -0.00541666      -0.01652756      -0.01530045
O        2.84716757       3.05125688       6.11838360       0.00858766      -0.01809124       0.00085209
F        2.10958528       1.49402435       1.77563451      -0.01677278      -0.01096156       0.01727341
F        0.38884974       4.69476524      -1.37054168       0.03331949      -0.02100691       0.03043415
