9
Lattice="5.246031284332275 0.0 -2.4665913581848145 -0.8992588666512373 6.503700693232865 -1.85405695438385 0.0 0.0 7.771327495574951" Properties=species:S:1:pos:R:3 pbc="T T T"
Eu       3.12392879       0.11238222       1.46805293
Pb       0.59498610       1.95316193       2.83441602
Eu       3.41451831       3.85430267       2.04785142
Pb       0.14708910       5.23363156       1.96560978
Pb       1.46025665       4.71965122       4.90817462
Ag       4.28990347       5.70565413      -3.26753533
Ag       0.30500857       0.60248111       6.27170548
Ag       0.95515300       3.17689807      -0.19777519
Eu       3.22488422       1.83163457      -2.15448158
