11
Lattice="3.208882976486765 0.011255803206843303 0.07002373512622904 -1.6148244068767883 2.773547278098051 0.007635134612418465 -0.07644919605274036 0.017995620529288787 39.44899670920486" Properties=species:S:1:pos:R:3:forces:R:3 structure_index=0 total_energy=-76.38341522216797 stress="-0.001492445357143879 9.947112266672775e-05 0.0001054484600899741 9.903534373734146e-05 -0.0016670123441144824 0.00011728059325832874 0.00010488538100617006 0.00011679453018587083 -0.01211225613951683" pbc="T T T"
I       -1.04437447       2.78425063      30.29011155      -0.00086051      -0.00047063       0.03571595
Se       1.94094445       0.78684087      37.96225616       0.00502235       0.00229253      -0.02805364
Se       0.41133063       1.76262131      34.41184621      -0.00485944      -0.00188433       0.03169072
W        2.45846557       1.16782053      15.51658684      -0.00009615      -0.00006199      -0.00463811
Mo      -1.23567978       2.65593990      36.15458199      -0.00010529      -0.00038755       0.00227272
S        0.88433147       2.11259107      13.92909402       0.00233897       0.00102288       0.02471705
S        0.81671882       2.06454206      17.06203161      -0.00208798      -0.00084481      -0.03239556
Se       0.66008857       1.95010884      26.49067255      -0.00079649      -0.00022638      -0.03468215
W        0.74239251       2.00900186      22.62666051       0.00005632      -0.00002378       0.01153892
Mo       0.70426465       0.12382416      24.73615191       0.00036733       0.00032186      -0.02619350
S        0.78259023       0.17989136      21.05642012       0.00102079       0.00026219       0.02002771
