4
Lattice="5.093789654453828 -4.4133218996668394e-05 0.001164255009628703 7.08661572782671e-05 5.112235724543919 -0.0002583952226933276 -0.0005004598212909444 0.00015898725120072916 5.094630341037495" Properties=species:S:1:pos:R:3:forces:R:3 structure_index=0 total_energy=-28.24944305419922 stress="0.004703151993453503 8.708288805792108e-05 0.001674174447543919 8.714601426618174e-05 0.0435149222612381 -0.0003279051452409476 0.0016737646656110883 -0.0003278919612057507 0.007853205315768719" pbc="T T T"
Ca       4.96907925       2.92643938       4.10577363      -0.00110732      -0.00004906      -0.00147271
Sn       2.42188454       2.92624561       1.55726492       0.00006768       0.00019939       0.00004146
Eu       2.42140121       0.37054258       4.10459856       0.00115941      -0.00039968      -0.00039858
Eu       4.96861512       0.37003755       1.55758179      -0.00011980       0.00024935       0.00182985
