15
Lattice="4.830606599000979 0.1049521971456021 1.3172454248141425 1.0857420055195215 5.561352320739927 3.301117373509428 0.018886783023784087 0.045645564211741985 6.178793459448068" Properties=species:S:1:pos:R:3:forces:R:3 structure_index=0 total_energy=-118.30094146728516 stress="-0.009298094548285007 -0.00349139841273427 9.055203554453328e-05 -0.0034920487087219954 -0.006305541843175888 -0.002354186028242111 9.052300447365269e-05 -0.0023541732225567102 -0.008277665823698044" pbc="T T T"
Fe       1.30259318       2.37657312       2.16484304       0.03757795       0.02975621       0.00793649
Fe       3.43819949       0.26924662       2.72903986      -0.03264588      -0.01403171      -0.00557698
Fe       2.58292277       0.73490869       6.67571790      -0.01018359       0.00397251      -0.01382405
Fe       2.75260622       5.11663993       8.03771206      -0.01347680      -0.02512597       0.01006632
Fe       0.31021961       1.44427311       6.07288766      -0.01894388      -0.01846208       0.01369958
Fe       1.71150575       4.35341134       3.97517141      -0.00488966       0.00571390       0.00814106
Fe       4.49982865       1.25040427       4.99336393       0.01734786       0.01404751      -0.00915433
B        5.53711044       5.31694078       9.85963566      -0.01072176       0.00185454      -0.01499216
Fe       2.18794992       1.92825896       4.37857524       0.00563780      -0.01120708       0.01489167
Fe       4.16668257       3.86605593       4.17077070       0.00127228      -0.00366735      -0.00388789
P        1.19899947       0.01742513       2.39760606      -0.01580167       0.01630342      -0.00768458
Rh       5.34082595       4.21481833       7.86741902       0.00337438      -0.00247463      -0.00459708
Rh       3.14482474       3.22838026       6.40065241       0.01450300       0.01726232      -0.01266987
P        3.56882457       2.60084166       2.51394094       0.01657436      -0.00829363       0.00569711
B        5.18618684       3.06492280       5.82273229       0.01037575      -0.00564785       0.01195486
