17
Lattice="5.370122909545898 0.0 -3.0533275604248047 -2.558556598605321 5.631446657899279 -1.3017874956130981 0.0 0.0 6.145985126495361" Properties=species:S:1:pos:R:3 pbc="T T T"
Mn       1.50893331       0.61016981       4.48481922
Mn      -0.31467069       4.57122308       0.93509962
Mn       3.78104631       1.09535564       3.02696410
C       -0.40401408       1.46984538       4.40770767
Mn      -0.94889798       3.40666316       4.67009329
Mn       2.71124288       2.99669126      -1.44258680
Mn       2.47612563       5.54494731      -1.38251723
As       2.00262109       2.66412014       2.35838484
Mn       0.68475387       2.36051029      -0.00462522
Mn       2.19872986       4.46478349       0.73674014
Mn       2.98809701       1.26818491       0.64345387
C        3.48103260       1.02004529      -1.20559387
Mn      -0.41244524       2.36600069       2.37292921
C       -1.29671097       4.21010890       2.71399872
Mn       0.79163777       4.58568937       3.23530789
C        0.95783915       4.14040969      -0.86867626
As       0.70116265       0.00269200       0.74874771
