15
Lattice="2.9871875387536075 -0.0014275028609038313 -0.3867668157498221 -0.1190944754943069 5.939769141889063 -0.3241483539856617 0.011978331110109507 0.3642938562281048 10.141194633538364" Properties=species:S:1:pos:R:3:forces:R:3 structure_index=0 total_energy=-97.26000213623047 stress="-0.0005705692456103861 -0.0005293891881592572 4.940807048114948e-05 -0.0005288737011142075 0.0011916470248252153 -0.0007555052288807929 4.87527358927764e-05 -0.0007548399735242128 -0.00219299946911633" pbc="T T T"
O        1.41776250       0.54767853       7.90404906      -0.01348029      -0.00050586       0.00832965
Cr       0.28380683       4.94213445       1.52175869      -0.01968851       0.00952582       0.00483090
Li       0.85249780       0.58518036       4.19943639       0.01895376      -0.01525548      -0.00276101
Cr       0.09570724       0.56265403       9.46204763      -0.01388843       0.00954153       0.00402761
Fe      -0.03895276       3.53763444       8.84632359      -0.00413349       0.01408061      -0.00799894
Fe       1.15810122       4.76903699       6.66069173      -0.00258325       0.00154239       0.00053337
O        1.86529166       3.80375746       2.01319530      -0.01749720       0.00937101       0.00905224
O        1.64418555       6.06237644       0.31595098      -0.01787516       0.00556949       0.00054237
O        0.23297622       2.28286499       0.50175168      -0.01104500       0.01320285       0.00361314
Li       2.96132560       1.42012494       6.41785250       0.03482549       0.00999790      -0.00664824
Al       1.87032114       1.99454565       1.33654943      -0.00890755       0.01025671       0.00117540
Cr       1.83687282       3.23569205       3.96912335       0.00509161      -0.01015139       0.00013214
O        2.22900800       1.41770344       3.00048012       0.02210247      -0.00191864      -0.01052213
O        0.71429097       4.73801246       4.83675891      -0.00481430      -0.02586222       0.01078340
F        1.35484320       1.96584580       5.57338875       0.03293987      -0.02939489      -0.01509004
