18
Lattice="7.317556381225586 0.0 -0.019892770797014236 -0.15871897395483048 7.323363979550712 -0.14150717854499817 0.0 0.0 10.325571060180664" Properties=species:S:1:pos:R:3 pbc="T T T"
Se       3.80383799       6.75971011       9.61589490
K        2.18413641       1.36926974       1.96778890
Se       4.00926275       6.97376592       4.42824212
Br       2.12307976       5.05327914       1.79838746
Br       5.85096611       1.38001696       7.01368341
Br       3.90525146       3.30557496       9.66654942
K        5.74810554       5.04328358       1.86222060
Br       2.10675823       5.03111072       7.18510486
Os       2.15965042       5.07528867       9.64871682
Br       0.15355107       6.95229547       4.45349234
K        2.19556359       1.34450661       7.14330159
Br       5.84183175       1.37008862       2.09180026
Os       5.78646905       1.30353633       4.53572744
Br       4.07339048       3.10323826       4.51882138
Br       0.34085500       6.78323912       9.62013001
Br       0.20569261       3.09251133       4.53667117
Br       0.42184160       3.31933626       9.68016022
K        5.74890598       5.01739962       7.05294648
