7
Lattice="4.599790096282959 0.0 -1.3274908065795898 -0.3957051975089776 4.582936965939269 -1.3299903869628906 0.0 0.0 8.689583778381348" Properties=species:S:1:pos:R:3 pbc="T T T"
O        2.67593848       2.32924554       4.76443287
Ge       1.12765326       0.64099615       8.03577699
Eu       1.93507265       1.52076806       2.17431900
Eu       2.86492383       0.02713949       5.39726561
Eu       0.36751840       2.31921223       5.39664806
Eu       3.39497798       3.11434963      -1.40699267
Ge       4.20467878       3.99377483       1.42996686
