12
Lattice="4.742800235748291 0.0 0.001461880630813539 0.0010055780194944681 7.342253616136743 0.002127448096871376 0.0 0.0 8.292898178100586" Properties=species:S:1:pos:R:3:forces:R:3 sample_seed=87000 sample_index_within_seed=0 benchmark_method=GBSA-TCL dft_verified=F structure_index=0 total_energy=-76.30847930908203 stress="-1.4053785800933838 0.0017657927237451077 0.010180346667766571 0.0017657903954386711 -0.39800578355789185 0.007030499167740345 0.010180069133639336 0.007030253764241934 -0.8337647318840027" pbc="T T T"
Eu       1.35554239       0.06916135       5.38089059       0.00338178       0.01591624      -0.05317499
Au       3.72824807       1.64469965       7.00593665      -0.00142361       0.01761326      -0.05159596
Eu       3.73117713       0.07242703       1.75633897      -0.00701241      -0.00216366       0.05318364
Eu       3.72682104       3.74177994       1.23787055       0.00359550       0.00363140      -0.06199302
Au       3.72885036       5.31370394       4.27811187      -0.00209401       0.02601131       0.06024275
Au       1.35640755       1.64284201       0.13147425       0.00212998       0.01824639       0.04310717
Au       1.35731661       2.17377865       2.86060572       0.00109796      -0.02688756      -0.05288512
Au       3.72877065       5.84420284       7.01008907       0.00068739      -0.01931189      -0.05859377
Au       1.35763788       5.31108996       2.86128019       0.00077913       0.02527918      -0.05030476
Au       3.72858115       2.17767445       4.27589534      -0.00248830      -0.02925257       0.06229222
Au       1.35736284       5.84170527       0.13297713      -0.00019132      -0.01629826       0.04812748
Eu       1.35639526       3.74623066       5.90124049       0.00153788      -0.01278386       0.06159445
10
Lattice="4.70496940612793 0.0 -0.00031429625232703984 0.007761835219253621 7.555453605084416 -0.08713605254888535 0.0 0.0 7.678313255310059" Properties=species:S:1:pos:R:3:forces:R:3 sample_seed=87001 sample_index_within_seed=0 benchmark_method=GBSA-TCL dft_verified=F structure_index=0 total_energy=-96.0447006225586 stress="0.9803829193115234 0.018732884898781776 -0.003332037478685379 0.018733054399490356 0.28494319319725037 0.1569899320602417 -0.0033317641355097294 0.15698963403701782 0.3372745215892792" pbc="T T T"
Pt       0.99127995       3.84952723       6.53942580      -0.00035238      -0.00114878       0.07269401
Eu       0.99117346       6.71263305       7.32461267       0.00562877      -0.06088181       0.00361176
Eu       3.34151285       1.80746645       5.82312784       0.00195958      -0.06317106      -0.01934540
Eu       3.34540805       5.21418572       4.75442558      -0.00146267       0.07580878      -0.03762060
Eu       3.34562880       4.14032581       1.14578999      -0.00347786      -0.00453691       0.03702004
Eu       0.99177246       2.95174739       3.52072410      -0.01905478       0.03466596       0.06203493
Pt       0.99298973       5.85943981       2.45442801       0.00150608       0.01647116      -0.01299074
N        3.34189717       2.84518431       3.40230115       0.01921781      -0.01514263      -0.05686869
Eu       3.34199789       0.46291120       2.52459898      -0.00354181       0.04197723      -0.02249628
Pt       0.98972980       0.02441017       4.63708380      -0.00042269      -0.02404197      -0.02603904
9
Lattice="4.34401798248291 0.0 -0.0013667891034856439 -0.007373406028151488 7.592223401669921 -4.385467529296875 0.0 0.0 8.779388427734375" Properties=species:S:1:pos:R:3:forces:R:3 sample_seed=87002 sample_index_within_seed=0 benchmark_method=GBSA-TCL dft_verified=F structure_index=0 total_energy=-80.1473388671875 stress="-1.6009882688522339 -0.01095573604106903 -0.0035987889859825373 -0.010955768637359142 -0.6030057072639465 0.013948558829724789 -0.0035990411415696144 0.01394837349653244 -0.5878021121025085" pbc="T T T"
Eu       4.12592527       4.33507207       0.16133842      -0.00061800       0.00397070      -0.00151113
Eu       4.12277689       5.79061203       4.54895466       0.00087423       0.00346423       0.00268070
Eu       4.12843933       1.27236709       3.62186521      -0.00048117      -0.00274827      -0.00688557
Eu       1.95529138       1.27352828       0.50877043       0.00118163      -0.00991814       0.00485134
Pt       4.12780524       1.27608554       7.16586817       0.00026524      -0.01039577      -0.00321483
Eu       1.95156432       7.01836831       1.71401607      -0.00232271       0.01239124       0.00627647
Eu       1.95361625       3.10887590       6.10634487       0.00137417       0.00129512      -0.00282397
Pb       1.95361848       3.79722221       2.77912961       0.00009979       0.00189285      -0.00145448
Pb       1.95161564       6.33326280      -1.61386973      -0.00037321       0.00004803       0.00208150
14
Lattice="3.6355137825012207 0.0 -0.005461272317916155 1.812476173927649 6.8802445519995805 -0.052977193146944046 0.0 0.0 9.548674583435059" Properties=species:S:1:pos:R:3:forces:R:3 sample_seed=87003 sample_index_within_seed=0 benchmark_method=GBSA-TCL dft_verified=F structure_index=0 total_energy=-156.6713409423828 stress="-2.380392551422119 -0.02634344808757305 -0.05729932710528374 -0.0263443011790514 -1.1814818382263184 0.010193881578743458 -0.05729978531599045 0.010193641297519207 -1.3754074573516846" pbc="T T T"
Gd       0.66155745       2.47555020       9.48087384       0.01587369       0.02538130       0.39569861
O        2.47634703       6.19819296       6.30684422      -0.00439223      -0.37489605       0.18313694
Eu       2.47402397       5.68336110       1.88803924      -0.02392637       0.06888701      -0.04470412
Eu       2.47649659       0.10261707       4.75545936       0.01920529      -0.15341637       0.00833990
O        0.66415361       0.16397358       0.05264193       0.00494899       0.18239845      -0.22863065
O        2.47932695       2.73710563       4.76168986      -0.00738284       0.00220618       0.17870906
Gd       4.29345653       2.89579683       3.37171665      -0.00264148      -0.05336908      -0.54554015
O        2.47872998       2.10776020       8.15007075      -0.00873417      -0.03519270      -0.31021887
Eu       4.29342727       6.63428379       8.07358546      -0.00493193       0.00834301       0.08147266
O        2.47639984       3.12997865       1.53138317       0.00255716      -0.05748093       0.11476211
O        4.28987988       5.15319089       3.18036855       0.02412573       0.01577560       0.20399463
O        4.29675991       4.24816434       7.98115777      -0.01045449      -0.04528454      -0.46597379
O        0.66001620       0.66201571       3.39943317      -0.01119899       0.11854474      -0.17508800
Gd       2.47656790       3.86296173       6.69709000       0.00695161       0.29810318       0.60404199
6
Lattice="4.943511962890625 0.0 -2.8559017181396484 -1.664773693334027 4.67893495052185 -2.857386827468872 0.0 0.0 5.728630065917969" Properties=species:S:1:pos:R:3:forces:R:3 sample_seed=87004 sample_index_within_seed=0 benchmark_method=GBSA-TCL dft_verified=F structure_index=0 total_energy=-40.488861083984375 stress="0.348529577255249 -0.08778315037488937 0.013750002719461918 -0.08778347074985504 0.5628178119659424 0.008367175236344337 0.013749683275818825 0.008367028087377548 0.5829650163650513" pbc="T T T"
Eu       3.69537248       1.86770767      -0.92506785      -0.00625274      -0.00381912       0.00235606
Eu       2.10200479       3.05769970       1.93972933       0.00792125       0.00617571      -0.00143824
Pt       3.73283344       0.12443858       1.93297445      -0.00469111      -0.00452328       0.00437151
Au       1.26032706       0.12549255       0.50026104      -0.00198940      -0.00493252      -0.00003342
Au       1.26078661       0.12245894       3.36440143       0.00218746       0.00377816       0.00005720
Au       0.42650090       2.46283393      -0.92775968       0.00282456       0.00332109      -0.00531305
10
Lattice="4.833363056182861 0.0 -0.012125982902944088 -0.007799997427882435 5.550651791907728 -1.6726802587509155 0.0 0.0 9.605518341064453" Properties=species:S:1:pos:R:3:forces:R:3 sample_seed=87005 sample_index_within_seed=0 benchmark_method=GBSA-TCL dft_verified=F structure_index=0 total_energy=-67.26060485839844 stress="-0.4509904384613037 -0.021146399900317192 -0.04829476773738861 -0.021146684885025024 -0.9757921099662781 -0.27271267771720886 -0.048294924199581146 -0.2727123498916626 -0.2040051966905594" pbc="T T T"
Eu       1.04841731       4.16032654       3.06227055      -0.01090861       0.03083081       0.05010771
Eu       3.46619760       1.06906238       3.21730813       0.00313220      -0.00825072       0.06007053
Au       1.05006820       1.76143979       5.16565498      -0.00706672      -0.00421255       0.00384624
Au       3.46731010       0.07462655       6.23397895       0.00607029       0.00636557      -0.01366485
Eu       3.46075828       3.22795873       6.66019470       0.01211989      -0.04097433      -0.04456965
Eu       1.05083370       0.76607669       8.18039097       0.00130091       0.00435684      -0.05788058
Au       1.04677659       4.04575537      -0.68908175       0.00105860      -0.08760291      -0.06146946
Au       3.46488558       3.32874492       0.80829752      -0.00201061       0.10793301       0.05514002
Au       1.05005959       1.68182253       1.41037861      -0.00796572      -0.17068228       0.03174753
Au       3.46927238       0.15389807       0.38085506       0.00426974       0.16223660      -0.02332749
10
Lattice="3.805488348007202 0.0 -0.0008974851807579398 -1.8994696159086297 7.922948905949143 -0.49770236015319824 0.0 0.0 9.198564529418945" Properties=species:S:1:pos:R:3:forces:R:3 sample_seed=87006 sample_index_within_seed=0 benchmark_method=GBSA-TCL dft_verified=F structure_index=0 total_energy=-91.73323059082031 stress="0.09264545142650604 0.01730431243777275 -0.004203999415040016 0.01730429008603096 -0.7667698860168457 -0.3713752329349518 -0.004203728400170803 -0.3713757395744324 -0.11816985160112381" pbc="T T T"
O        0.35244099       3.78467105       3.44502619      -0.00027833       0.06528441       0.05261691
Eu       0.34886168       1.48840504       4.49057494       0.00749465       0.00685269      -0.07669668
Eu       2.25867908       4.51860686       4.97737455      -0.00737052      -0.00096869       0.08130650
Eu       2.25295501       3.11672363       1.87109538       0.00204328       0.09762914      -0.09186062
Eu       0.35273667       7.66247345       6.70941672       0.00312315      -0.08452162       0.14434151
Eu       0.35478527       6.27679647       2.26255048      -0.00319678       0.07051528      -0.14208433
Eu       0.35346620       2.89015651       7.59942792      -0.00067751      -0.07754423       0.08914402
O        2.25572497       2.22402227       6.02446529      -0.00207404      -0.06675955      -0.04890429
Pb       2.25561543       5.40651021       8.61565080       0.00120661       0.13839981      -0.07205851
Pb       0.35053657       0.60648078       0.85688267      -0.00027047      -0.14888723       0.06419563
20
Lattice="5.785731315612793 0.0 0.0016571274027228355 0.0021616324680622037 6.0470076512062265 0.0023807347752153873 0.0 0.0 8.561666488647461" Properties=species:S:1:pos:R:3:forces:R:3 sample_seed=87007 sample_index_within_seed=0 benchmark_method=GBSA-TCL dft_verified=F structure_index=0 total_energy=-214.11569213867188 stress="-0.8723272085189819 0.026287155225872993 0.03691258653998375 0.026286302134394646 -0.7208065390586853 -0.3374950587749481 0.03691054880619049 -0.3374950587749481 -0.714893102645874" pbc="T T T"
O        5.50266764       2.00762449       3.86241971      -0.08932313       0.04899432       0.12812181
Eu       3.57792236       1.83015465       8.10942817       0.13442482       0.17843218       0.13634039
Y        3.48146174       4.54159426       5.99592004       0.09902322      -0.04595125       0.08126928
O        4.55098791       0.37519110       1.04744144      -0.05797052       0.00559098       0.07623761
Gd       3.48031327       4.54323385       1.71025124       0.07555833      -0.06299756      -0.09032635
O        1.65110076       5.67374409       2.38907265      -0.08054529      -0.14185727       0.26558006
Gd       3.37929912       1.21258703       3.87316748      -0.00752489       0.09916437      -0.13137934
Y        0.58415615       1.51821045       5.99270504      -0.09564403      -0.06664792       0.08893317
O        2.41289709       2.65023467       2.39098917       0.08472748      -0.12125729       0.26732379
Eu       0.48794268       4.85411640       8.11630778      -0.15717685       0.18676730       0.10983922
O        1.41232145       1.06074077       8.11982079      -0.05100957      -0.00084099      -0.09931581
Gd       0.68707549       4.23481808       3.87230938      -0.00047974       0.12213551      -0.13570319
O        1.66277470       5.68011576       5.30979956       0.03091359       0.01359574      -0.03275748
O        5.29566503       3.38976028       6.65651161      -0.06296463      -0.10064986      -0.30060858
Gd       0.58452289       1.51997818       1.70758607      -0.07010239      -0.07378367      -0.09332717
O        5.30103137       3.39948431       1.05413012       0.04840100       0.01460383       0.06482956
O        4.34921334       5.03065236       3.86550444       0.09314394       0.05036227       0.10246651
O        4.55548450       0.36558477       6.65389372       0.06767206      -0.09419784      -0.31025517
O        2.40756815       2.65399125       5.31505988      -0.03640488       0.01694782      -0.03562291
O        2.65094040       4.08844612       8.12237820       0.07528137      -0.02841043      -0.09164467
6
Lattice="4.301296710968018 0.0 0.746256411075592 2.0949029282755727 3.7644413755229267 0.741793155670166 0.0 0.0 12.803647994995117" Properties=species:S:1:pos:R:3:forces:R:3 sample_seed=87008 sample_index_within_seed=0 benchmark_method=GBSA-TCL dft_verified=F structure_index=0 total_energy=-35.91002655029297 stress="-0.7220738530158997 0.0430387519299984 0.021637124940752983 0.04303881153464317 -0.740644097328186 0.01773543283343315 0.02163703367114067 0.017735270783305168 -0.6226927638053894" pbc="T T T"
Eu       0.74209534       1.17701899       1.02626380      -0.01894002      -0.01541685       0.07273670
Ga       2.50737837       2.21769032       3.63761723       0.02781710       0.01062440      -0.04971197
I        3.24446443       0.11094601      12.14561725       0.02963835       0.02102476      -0.12487575
Eu       4.28364527       0.73423691       6.16180526       0.02545957       0.01804484      -0.08999024
Ga       4.61646169       3.45936579       4.28062103      -0.03276509      -0.01310139       0.07348454
I        1.78302006       1.80081134       7.84660115      -0.03120992      -0.02117578       0.11835674
4
Lattice="3.826141834259033 0.0 0.05695094168186188 0.076652109777559 5.35281232995328 0.052104830741882324 0.0 0.0 5.355541706085205" Properties=species:S:1:pos:R:3:forces:R:3 sample_seed=87009 sample_index_within_seed=0 benchmark_method=GBSA-TCL dft_verified=F structure_index=0 total_energy=-30.265283584594727 stress="1.2623287439346313 0.24070176482200623 0.24543868005275726 0.2407016009092331 1.042048454284668 0.11492811143398285 0.2454386204481125 0.11492817103862762 1.0123076438903809" pbc="T T T"
Eu       1.56564467       1.11674636       2.66440506      -0.00388445      -0.01780168       0.04234664
Eu       1.58704996       3.78903213       0.08064506       0.00376622       0.01667904      -0.04393563
Au       3.51078109       3.78489721       2.82384057      -0.00028329       0.00365101      -0.01938205
Au       3.46784111       1.12014005       5.33267265       0.00040149      -0.00252835       0.02097105
16
Lattice="3.74513840675354 0.0 -0.004390607122331858 0.00015485944833901893 3.4970550502821314 0.007053907494992018 0.0 0.0 16.742431640625" Properties=species:S:1:pos:R:3:forces:R:3 sample_seed=87010 sample_index_within_seed=0 benchmark_method=GBSA-TCL dft_verified=F structure_index=0 total_energy=-134.67776489257812 stress="-2.083195686340332 0.0015007853507995605 -0.11436527967453003 0.001500496524386108 -3.587247133255005 -0.02580667845904827 -0.1143689975142479 -0.025808008387684822 -4.606226921081543" pbc="T T T"
S        0.12743148       0.54373863       0.68706355      -0.00049680      -0.00128402      -0.11537313
Gd       0.14528001       0.54185531       6.45461738      -0.01178128      -0.00731535      -0.25775978
Fe       2.00923675       0.54931635       8.79108942       0.08766945       0.00439731      -0.08027561
Li       0.13340495       2.28973719       3.63875817       0.01093334       0.00032067      -0.33427089
Fe       1.99758948       2.29025225       0.58611636       0.01332398       0.01039258       0.28611419
Gd       0.12865580       0.55194817      14.78150124       0.01063209      -0.00913262       0.43850654
Gd       0.13086812       0.55791203      11.15707386       0.00803160      -0.00068298      -0.63890576
O        0.12827155       2.30105052      13.00205623       0.13662159       0.00754377      -0.21999606
O        2.01413234       2.28799942       6.75541450      -0.01089966      -0.00819152      -0.05065767
O        2.00837651       2.30533336      10.82867761      -0.00556622       0.00265969       0.04187420
Fe       2.00867374       0.53844366       3.13832538      -0.00372605       0.06846013       0.90080470
O        0.13663539       0.54121999       4.26765841      -0.00435279      -0.01429207       0.56985927
Fe       2.00608876       2.30282290      12.98129591      -0.13365436       0.00360147      -0.28262684
O        2.00443459       2.30169773      15.07840260      -0.01094650      -0.00603461       0.44271854
O        2.00328800       2.28931489       2.74964884      -0.00263960      -0.05240172      -1.04963255
O        0.14003435       0.54894960       8.83174712      -0.08314912       0.00195907       0.34962142
9
Lattice="3.6701488494873047 0.0 0.570670485496521 1.5614556799983739 6.6182639548019 2.107044219970703 0.0 0.0 12.317580223083496" Properties=species:S:1:pos:R:3:forces:R:3 sample_seed=87011 sample_index_within_seed=0 benchmark_method=GBSA-TCL dft_verified=F structure_index=0 total_energy=-76.09648895263672 stress="-0.08558657020330429 0.00865391455590725 -0.0044343192130327225 0.00865376926958561 0.16361571848392487 -0.01812398061156273 -0.004434241447597742 -0.018123596906661987 0.11541992425918579" pbc="T T T"
Eu       2.41866102       2.16299770       7.81062789       0.00316190      -0.03802174      -0.02157933
Eu       3.71497079       2.38811321      11.60718822       0.00480479      -0.03985662       0.00152921
Eu       4.22438307       5.64288397       8.31991434      -0.00403492       0.04510017      -0.00652004
Eu       1.85008715       5.86994703      11.53888006      -0.00345153       0.03840246       0.02390980
Al       1.01822025       1.51344340       4.65249392      -0.00055099      -0.04814992       0.03766156
Al       3.25168086       6.52443075       2.37948404       0.00160616       0.04174774      -0.03227874
Eu       2.82996259       4.31320717       5.12770636       0.01090294       0.09999231      -0.08656533
Eu       1.44089318       3.72488907       1.91003681      -0.01127231      -0.10078652       0.08466482
Sc       3.19028547       0.70810045       2.74949683      -0.00116602       0.00157215      -0.00082195
8
Lattice="4.214351177215576 0.0 0.00018871435895562172 -2.1060122413201734 6.67639417314195 0.015962086617946625 0.0 0.0 10.070311546325684" Properties=species:S:1:pos:R:3:forces:R:3 sample_seed=87012 sample_index_within_seed=0 benchmark_method=GBSA-TCL dft_verified=F structure_index=0 total_energy=-71.87953186035156 stress="-0.2543014585971832 0.00266127847135067 0.0007551329326815903 0.0026613541413098574 0.09905103594064713 0.012594692409038544 0.0007549893343821168 0.012594505213201046 0.08489514142274857" pbc="T T T"
Eu       2.19487600       0.33562280       0.88477856       0.00001957       0.08525656      -0.01820262
Eu       0.08929938       3.22612687       9.70296669      -0.00200692      -0.09164728       0.00883870
Eu       2.19451882       4.16551770       2.77874959       0.00073014      -0.13399988       0.00319254
Au       0.08809733       1.76928495       2.77079191      -0.00134957       0.09490947       0.00106257
Eu       2.19387742       0.33579663       4.65432744       0.00038772       0.08361997       0.02117140
Au       2.19471967       1.78262245       7.81198043      -0.00093291      -0.08349826       0.00375140
Eu       0.08615419       3.22008469       5.92864641       0.00113200      -0.08465943      -0.01680450
Eu       2.19376266       6.06950196       7.82243117       0.00201996       0.13001879      -0.00300948
8
Lattice="4.384860515594482 0.0 -0.006003066897392273 -0.0008894847380054315 5.363720820106669 0.006658536847680807 0.0 0.0 6.490501880645752" Properties=species:S:1:pos:R:3:forces:R:3 sample_seed=87013 sample_index_within_seed=0 benchmark_method=GBSA-TCL dft_verified=F structure_index=0 total_energy=-70.49134826660156 stress="-1.3587020635604858 -0.015556933358311653 -0.23677000403404236 -0.015557369217276573 1.9274415969848633 0.019776955246925354 -0.2367711365222931 0.019775673747062683 -6.350847244262695" pbc="T T T"
Gd       0.01142680       4.54077097       1.56863422      -0.00253409       0.00313372       0.74920589
Pt       2.20486440       0.52145340       6.05445902      -0.00821669      -0.04860378       0.01780188
Pt       2.20415743       3.20069949       6.05871311      -0.00388136       0.03107879       0.02978263
Pt       2.20399566       1.84999389       2.10596715       0.01200835       0.03215721      -1.97039437
Pt       2.20475994       4.54299610       3.52539508      -0.02237996       0.00543405       1.97429895
Pt       0.01110522       4.54302264       5.12106427       0.01952762       0.00281201       0.80312836
Gd       0.01276302       1.86383446       4.07087825       0.00028983      -0.01578189      -0.78053433
Pt       0.01147540       1.86152844       0.51840431       0.00518632      -0.01022985      -0.82328844
12
Lattice="4.899550437927246 0.0 0.0002801403752528131 -0.0017189268595040332 7.916818909001929 -5.602779856417328e-05 0.0 0.0 9.615492820739746" Properties=species:S:1:pos:R:3:forces:R:3 sample_seed=87014 sample_index_within_seed=0 benchmark_method=GBSA-TCL dft_verified=F structure_index=0 total_energy=-102.28836059570312 stress="-0.16847366094589233 -0.002989857690408826 -0.0026432836893945932 -0.0029901538509875536 -0.3568871319293976 0.004681963007897139 -0.002643351908773184 0.004682043567299843 -0.17928209900856018" pbc="T T T"
Au       3.99526380       3.49932552       5.85832990      -0.00211982       0.04143494      -0.07870987
Au       1.54757017       3.56543579       1.04546502      -0.00365916      -0.03073925      -0.07238367
Eu       3.99420128       5.67601050       0.49122428      -0.00000757       0.03377527      -0.00744556
Eu       1.54367441       4.36438268       7.62110195       0.00185204       0.00271197      -0.00862301
Eu       3.99488446       2.70432141       2.81906103       0.00086862       0.01148621      -0.01395486
Au       1.54421481       7.52252422       7.99283630      -0.00231253      -0.02829738       0.07480089
Eu       1.54458415       0.40440276       1.41712933      -0.00005931       0.00834882       0.00020430
Eu       3.99322661       1.71826557       8.54486971       0.00158611       0.03299756       0.01546122
Eu       3.99285448       6.66964554       6.22073118       0.00123893      -0.01343979       0.01460676
Au       3.99188379       7.46572742       3.18429117       0.00086684       0.02747717       0.07391678
Eu       1.54265796       5.36315224       3.73423163       0.00118789      -0.05251259       0.00991422
Eu       1.54462244       1.39486223       5.30151908       0.00055793      -0.03324290      -0.00778721
4
Lattice="3.8083677291870117 0.0 0.5963005423545837 1.8541091158368053 3.330497161347443 0.595639705657959 0.0 0.0 12.381841659545898" Properties=species:S:1:pos:R:3:forces:R:3 sample_seed=87015 sample_index_within_seed=0 benchmark_method=GBSA-TCL dft_verified=F structure_index=0 total_energy=-32.44960403442383 stress="-0.04298269748687744 -0.00044722124584950507 -0.04793647304177284 -0.00044719749712385237 -0.028936652466654778 -0.02791285514831543 -0.04793652892112732 -0.02791282907128334 0.22843962907791138" pbc="T T T"
Li       2.25448579       0.19740660       1.02544120      -0.00004566       0.00013845       0.00236153
Eu       3.16713464       2.97397379       7.60466832      -0.00194497      -0.00066438       0.01433436
Eu       3.70056094       1.04987574       4.24480706       0.01591010       0.00907459      -0.10436617
Eu       4.58634477       1.57018294      10.98954849      -0.01391948      -0.00854866       0.08767029
14
Lattice="6.957433223724365 0.0 -2.4574103355407715 -3.479625022360779 6.027960351102563 -2.458143949508667 0.0 0.0 7.375833988189697" Properties=species:S:1:pos:R:3:forces:R:3 sample_seed=87016 sample_index_within_seed=0 benchmark_method=GBSA-TCL dft_verified=F structure_index=0 total_energy=-148.11569213867188 stress="-0.552014946937561 0.00029920809902250767 0.012983986176550388 0.00029890710720792413 -0.5313989520072937 -0.015687232837080956 0.012984096072614193 -0.015687262639403343 -0.5568366646766663" pbc="T T T"
Gd       2.33461738       5.06747039      -3.78883560      -0.01006250       0.04761158      -0.04446193
Gd      -1.58776198       5.82771191       3.58072767       0.03423860      -0.01147698       0.04696850
Gd      -0.27023232       2.06415174       3.58155812      -0.02531335       0.02617540      -0.00222929
Gd       2.33263919       3.56974902      -0.10098045       0.01631191      -0.00905064       0.02019452
Pt       0.15324898       4.33289472       1.68930915       0.02516789      -0.01943569      -0.01824124
Gd      -1.57887304       2.81910570      -0.10209058       0.02626308      -0.01558053      -0.00125195
Pt       0.16616101       4.32133083      -1.98979117      -0.03460068       0.01925128      -0.05274522
Pt       4.17520723       1.30604012      -0.30067802      -0.03949510      -0.00303051       0.02930946
Pt       4.24038894       3.27498782       2.17202282       0.03288624      -0.01480949      -0.01947906
Pt      -2.71694957       5.37089814       0.93245627      -0.00251579       0.00763101       0.02176496
Pt       2.50714119       2.35160220       4.62912883      -0.00772738       0.01443246       0.01509596
Gd       3.19951550       0.56144570       2.35360573       0.02284667      -0.01310775      -0.02986590
Pt       0.69530897       1.30484682       0.93592171      -0.05039114       0.00237458      -0.00253292
Pt       5.97582348       0.26944244       3.38870577       0.01239151      -0.03098469       0.03747408
12
Lattice="5.79362154006958 0.0 0.003611174179241061 -2.725912104660552 4.922379024815796 0.00017482291150372475 0.0 0.0 9.227625846862793" Properties=species:S:1:pos:R:3:forces:R:3 sample_seed=87017 sample_index_within_seed=0 benchmark_method=GBSA-TCL dft_verified=F structure_index=0 total_energy=-97.98751831054688 stress="0.4154232442378998 -0.1505495309829712 0.010883522219955921 -0.15054866671562195 0.7330160140991211 0.007107977755367756 0.010883745737373829 0.007107950281351805 -0.3748731315135956" pbc="T T T"
Eu       1.03436518       0.09859044       0.67492629       0.00510729      -0.01478611      -0.00837225
Pt       3.93162346       0.09837443       5.29000743       0.03862648      -0.02013602      -0.03653620
Eu      -0.32931687       2.55809667       2.98251589       0.00138418      -0.00676469      -0.00285905
Eu      -0.32844972       2.55579526       7.59147217       0.00429434       0.00254694       0.00192382
Pt       3.93312231       0.09609188       0.67263663      -0.01529911       0.00521661      -0.00022448
Eu       1.03948717       0.09312300       5.28434169      -0.02518529       0.01675690      -0.00170680
Pt       2.85361666       1.10133827       2.97564094       0.06194962       0.07459342       0.05166686
Pt       2.56770370       2.55692601       0.67271508       0.00944379       0.00571589      -0.00500628
Pt       2.28416933       4.01335874       7.59776847      -0.05412297      -0.07630509      -0.03387122
Pt       2.85545387       1.09946428       7.59021495       0.04509839       0.08175980       0.05560747
Pt       2.28150045       4.01276109       2.98160869      -0.05541044      -0.07585630       0.00522570
Pt       2.57321740       2.55737462       5.28963703      -0.01588621       0.00725877      -0.02584757
16
Lattice="4.182052135467529 0.0 0.011309212073683739 -2.0775892536819796 8.913873264642714 -0.5896016359329224 0.0 0.0 11.854061126708984" Properties=species:S:1:pos:R:3:forces:R:3 sample_seed=87018 sample_index_within_seed=0 benchmark_method=GBSA-TCL dft_verified=F structure_index=0 total_energy=-151.1401824951172 stress="-0.014381736516952515 0.03391624987125397 0.053033191710710526 0.033916112035512924 -0.8269067406654358 -0.030607307329773903 0.053032852709293365 -0.030607178807258606 -0.43598997592926025" pbc="T T T"
P        0.59273994       6.48072801       4.96950054      -0.00615795       0.06026340       0.16510876
Eu       0.59825048       6.69954040       7.99011671      -0.00438430      -0.04873581      -0.00504098
Eu       0.59250374       5.66299254      11.17680489       0.00268844       0.22193849      -0.09282750
Eu      -1.49865253       8.16495072       3.57798799       0.01378919       0.29078823       0.09265655
Eu       2.68148006       5.56741072       2.29405153      -0.00777545      -0.29747218      -0.10455853
Eu      -1.49498010       8.78231550      11.13538440       0.00307866       0.02029516       0.11990993
Eu       2.67857985       4.48554758       5.84604503       0.01429605      -0.07815243      -0.04718527
Eu       2.67972211       1.97635272       3.00599040      -0.00605441      -0.01583710       0.02950363
Eu       2.67995182       2.86051367      11.34899650       0.01080647       0.07980411       0.13229746
Eu       2.67324834       0.48072794       6.66326938      -0.00088569       0.05233933      -0.18006466
P        0.59101577       3.53653010       1.41399802      -0.01134118      -0.13620570      -0.08178820
P        2.67491874       0.60771137       9.56702768       0.00558177      -0.14055631       0.10266500
P        0.59472284       7.92564736       1.33020211      -0.00203800       0.11523379      -0.02956915
Eu       0.58840807       2.66033771       8.52785803       0.00147551      -0.02246703      -0.11137266
P        2.68755973       4.85964119       9.04181648      -0.01157227      -0.00452034      -0.09604409
P        0.58597393       2.09269103       5.39237417      -0.00150684      -0.09671567       0.10630976
4
Lattice="4.90346097946167 0.0 2.8362112045288086 1.6416288812450257 4.624477928919089 2.8326416015625 0.0 0.0 5.666973114013672" Properties=species:S:1:pos:R:3:forces:R:3 sample_seed=87019 sample_index_within_seed=0 benchmark_method=GBSA-TCL dft_verified=F structure_index=0 total_energy=-26.941787719726562 stress="0.3165879547595978 0.016459016129374504 0.005803653504699469 0.01645904779434204 0.326447457075119 -0.002276094164699316 0.005803579930216074 -0.002276064595207572 0.34148117899894714" pbc="T T T"
Hg       2.31647275       1.16532353       2.32379368       0.00063776      -0.00064404       0.00100406
Eu       3.95460582       2.32126646       5.15823626      -0.00259314      -0.00168432       0.00135269
Pb       5.58965330       3.47556865       7.99315897       0.00002225       0.00258899      -0.00077834
Eu       0.67974566       0.00838133       5.15846730       0.00193314      -0.00026063      -0.00157840
4
Lattice="3.9156343936920166 0.0 -1.231096625328064 -0.798443724326248 5.266446692687856 -2.5234644412994385 0.0 0.0 6.95012903213501" Properties=species:S:1:pos:R:3:forces:R:3 sample_seed=87020 sample_index_within_seed=0 benchmark_method=GBSA-TCL dft_verified=F structure_index=0 total_energy=-32.40882873535156 stress="-0.7467633485794067 -0.06982658803462982 -0.11856671422719955 -0.06982658058404922 -0.7998961806297302 -0.08155955374240875 -0.11856679618358612 -0.08155947178602219 -0.8569825291633606" pbc="T T T"
Eu       0.45481684       3.02609703       5.15806757       0.01793468       0.01307982       0.02202628
Eu       2.96631923       0.64025302      -0.67221510      -0.01534269      -0.01209403      -0.02070206
Eu      -0.64598645       4.46672115       1.59703298       0.00034775       0.00019367      -0.00099628
Mg       1.71245068       1.83418713       2.24281185      -0.00293975      -0.00117945      -0.00032794
5
Lattice="5.098989963531494 0.0 -8.89685470610857e-05 0.0007935001845112255 5.098067221877307 0.0010614936472848058 0.0 0.0 5.1019368171691895" Properties=species:S:1:pos:R:3:forces:R:3 sample_seed=87021 sample_index_within_seed=0 benchmark_method=GBSA-TCL dft_verified=F structure_index=0 total_energy=-40.25224685668945 stress="-0.5510279536247253 0.002105976454913616 -0.0002343329251743853 0.00210598879493773 -0.554040789604187 0.0028109767008572817 -0.00023433311434928328 0.0028109094128012657 -0.5414411425590515" pbc="T T T"
Eu       1.79929103       2.32378274       4.90598259       0.00012295       0.00000431       0.00041990
Eu       1.79921110       4.87297846       2.35564016       0.00085080      -0.00026137       0.00171821
Eu       4.34951903       4.87266426       4.90684651      -0.00141051       0.00022146      -0.00015914
H        1.80010279       4.87281255       4.90828653      -0.00020063       0.00000913      -0.00196965
Pb       4.34804763       2.32376694       2.35498735       0.00063738       0.00002645      -0.00000932
8
Lattice="4.796708106994629 0.0 -0.0026522751431912184 -0.00042101547152394083 5.09886739900013 -2.955225944519043 0.0 0.0 5.88979959487915" Properties=species:S:1:pos:R:3:forces:R:3 sample_seed=87022 sample_index_within_seed=0 benchmark_method=GBSA-TCL dft_verified=F structure_index=0 total_energy=-61.47853469848633 stress="3.1179850101470947 -0.003048999235033989 -0.01927388273179531 -0.0030490427743643522 0.940990686416626 -0.03473477065563202 -0.019273946061730385 -0.03473469987511635 0.8979690670967102" pbc="T T T"
Gd       1.56911877       5.02076459       2.69486939       0.00210665      -0.00947710       0.03042206
Pt       1.57001586       4.94730744      -0.24908031      -0.00533822       0.51742887      -0.00022853
Pt       3.96797339       1.69565246      -0.24588959       0.00089015      -0.51447630      -0.01629461
Gd       3.96790985       1.62368374       2.69767725       0.00523741      -0.00735100      -0.00581536
Pt       3.96823505       4.13602873       1.15871984      -0.00135755       0.26786056       0.43854529
Pt       1.56956579       2.50681325       4.23563644      -0.00079976      -0.25485593      -0.44683060
Pt       3.96752290       4.13548593      -1.65988492       0.00332182       0.25163269      -0.44246075
Pt       1.57015539       2.50783122       1.16416461      -0.00406044      -0.25076172       0.44266272
8
Lattice="3.631408929824829 0.0 0.006979459431022406 0.013253179119978383 6.5100105802413335 -3.2457077503204346 0.0 0.0 8.124981880187988" Properties=species:S:1:pos:R:3:forces:R:3 sample_seed=87023 sample_index_within_seed=0 benchmark_method=GBSA-TCL dft_verified=F structure_index=0 total_energy=-69.6650161743164 stress="-0.28855639696121216 0.05001426115632057 0.046764299273490906 0.05001414567232132 -0.3001689910888672 0.03330043703317642 0.04676434397697449 0.033300597220659256 -0.35165658593177795" pbc="T T T"
Eu       3.16169024       5.56617985       2.88100950       0.00023960      -0.04902038       0.01142166
Pt       1.34600154       4.82457708       5.33296118      -0.00075285      -0.00596868       0.00035013
Eu       3.15682586       2.40648404       4.45542036      -0.00287400       0.04421330      -0.03382757
Eu       3.15228657       0.72687148       1.33367643      -0.00141630      -0.04046750       0.04245469
Pt       1.34021528       3.17844837       2.05038746       0.00449783      -0.03345271      -0.06433890
Au       1.33757614       1.56696211       6.95347960       0.00305688       0.00204355       0.00081821
Eu       3.16156768       4.07841227      -0.33097310      -0.00593122       0.04835337      -0.02251143
Pt       1.34737290       6.46544143       0.48881766       0.00318002       0.03429906       0.06563312
4
Lattice="4.485718250274658 0.0 2.5912232398986816 1.4961038771633495 4.229099623978501 2.591139793395996 0.0 0.0 5.179399490356445" Properties=species:S:1:pos:R:3:forces:R:3 sample_seed=87024 sample_index_within_seed=0 benchmark_method=GBSA-TCL dft_verified=F structure_index=0 total_energy=-33.318450927734375 stress="-0.5838707089424133 0.0007081617368385196 0.008985521271824837 0.0007081343210302293 -0.5824149250984192 0.006139169912785292 0.008985543623566628 0.006139094941318035 -0.589266836643219" pbc="T T T"
Pt       2.97055602       1.17401415       4.40275196      -0.00016066      -0.00020029      -0.00018768
Eu       1.47432902       0.11622538       1.81253206       0.00299848       0.00225442      -0.00146014
Au       1.47561808       3.28867891       6.99276358       0.00000803      -0.00051030      -0.00094073
Eu       4.46655001       2.23158524       6.99283365      -0.00284582      -0.00154383       0.00258854
10
Lattice="4.86663293838501 0.0 -1.2520853281021118 -0.32235421998738895 4.854441302894751 -1.2574620246887207 0.0 0.0 10.085884094238281" Properties=species:S:1:pos:R:3:forces:R:3 sample_seed=87025 sample_index_within_seed=0 benchmark_method=GBSA-TCL dft_verified=F structure_index=0 total_energy=-94.89028930664062 stress="-0.21208186447620392 -0.001233558403328061 -0.00667214160785079 -0.0012334806378930807 -0.236145481467247 -0.026125596836209297 -0.006672211457043886 -0.026125827804207802 -0.2543924152851105" pbc="T T T"
H        3.28244736       2.42176544       1.10309865       0.07029905       0.07051900       0.25345913
Gd       2.05209783       3.69955545       6.37397994       0.01684084       0.01504174       0.05730736
Gd       3.85495332       3.02750595       3.29530877      -0.00033677      -0.00297469      -0.00216679
Gd       1.58342050       0.60065230       4.55223934      -0.00032211      -0.00194401      -0.00082877
Gd       3.06639498       4.78154721       0.22085541      -0.02162923      -0.02136021      -0.06735064
Gd       4.64395505       1.26852597       6.37147282       0.02368249       0.02588892       0.06450781
Hg       2.67545602       1.76740895       8.79640002      -0.00419374      -0.00389887      -0.00963544
Gd       0.79302370       2.35228405       1.47396001      -0.02039012      -0.01276469      -0.06696317
Hg       0.16918328       4.28598536      -0.95486758       0.00288561      -0.00012609       0.01306076
H        4.42560739       3.62932016       5.48160999      -0.06683603      -0.06838112      -0.24139023
12
Lattice="4.95897912979126 0.0 0.8620690107345581 2.406104811447135 4.336217425094727 0.8639806509017944 0.0 0.0 14.74446964263916" Properties=species:S:1:pos:R:3:forces:R:3 sample_seed=87026 sample_index_within_seed=0 benchmark_method=GBSA-TCL dft_verified=F structure_index=0 total_energy=-112.0831069946289 stress="-1.530587077140808 0.0038531392347067595 -0.019290082156658173 0.0038531599566340446 -1.5360968112945557 -0.007165899500250816 -0.019290059804916382 -0.007165959104895592 -1.372479796409607" pbc="T T T"
Eu       2.79572477       0.66979320      13.18011829       0.00100625       0.00400106      -0.01161960
Pt       3.33469559       0.98769863      10.06966945       0.02613495       0.01952143      -0.15107438
Pt       2.57252219       3.45912956      14.48219017      -0.00800808      -0.00858700       0.02436490
Eu       5.94818383       2.52788581       9.73146527      -0.00617442      -0.00413079       0.04240682
Eu       1.74628334       0.05119219       4.50153305      -0.00077919       0.00540505      -0.00215516
Eu       4.90868783       1.91267553      15.72593377      -0.00452274       0.00318169       0.06636786
Eu       3.08815581       3.76432948      11.49695896       0.01195188      -0.00023463      -0.07097439
Eu       2.05304245       3.15029286       2.73589867       0.00295031       0.00776625      -0.01838434
Pt       2.26135023       0.35718029       1.53176519      -0.03105429      -0.02701015       0.16030101
Eu       3.85430327       1.29550872       7.09269175      -0.01290427      -0.00959324       0.02738050
Pt       5.42409710       2.21777956      12.74748931       0.01124982       0.00860293      -0.05000648
Pt       6.47799452       2.84063272       6.66980407       0.01014978       0.00107740      -0.01660675
10
Lattice="5.1712493896484375 0.0 -2.1445982456207275 -2.0625226925269406 5.161440816481396 -0.7367381453514099 0.0 0.0 7.782103061676025" Properties=species:S:1:pos:R:3:forces:R:3 sample_seed=87027 sample_index_within_seed=0 benchmark_method=GBSA-TCL dft_verified=F structure_index=0 total_energy=-103.88790130615234 stress="-2.6230316162109375 -0.016630465164780617 -0.13926438987255096 -0.016630660742521286 -2.561671018600464 -0.48115643858909607 -0.1392647624015808 -0.4811570942401886 -3.0532901287078857" pbc="T T T"
Pt      -0.02906675       0.75665857       3.20021081       0.07434780       0.06321282      -0.08919019
Gd       2.80025446       0.86279408       2.75626431      -0.07577181       0.01672588       0.16779909
Gd       0.00629271       0.52432285       0.12244521       0.01903680       0.10650541       0.11071531
Gd       0.61274913       3.20813889       4.58755504      -0.00279228      -0.17010468      -0.08540420
Pt       2.93670121       4.07800690       2.52950154       0.00778798       0.03363603      -0.02796690
Gd       2.99449844       2.86252308      -0.18629881       0.02223925      -0.00052826      -0.14875458
Pt       3.84226273       2.87867018       4.82794515      -0.08756150      -0.10141739       0.02108571
Pt       0.64211319       2.96767366       1.51381110      -0.00866889      -0.04183477       0.09778525
Pt       0.78941189       4.80853504      -0.69278693      -0.01922667      -0.05886346       0.02221939
Pt       1.94855023       0.84319558       5.52957563       0.07060930       0.15266842      -0.06828890
12
Lattice="4.417473316192627 0.0 0.0015301178209483624 -2.2247411507731267 3.817212450370882 -0.002285508904606104 0.0 0.0 12.425925254821777" Properties=species:S:1:pos:R:3:forces:R:3 sample_seed=87028 sample_index_within_seed=0 benchmark_method=GBSA-TCL dft_verified=F structure_index=0 total_energy=-79.13162994384766 stress="-0.5524783134460449 -0.0919598862528801 0.005836730822920799 -0.09195996075868607 -0.6541869044303894 -0.008409484289586544 0.005837284494191408 -0.008409339003264904 -1.1128146648406982" pbc="T T T"
Zn       2.30472485       0.80653177       4.50328760       0.00472924      -0.00472927       0.00414998
Zn       0.09521263       2.07603083      10.71314355      -0.00867233       0.00337228       0.01825085
Zn       2.30560314       0.80590079       8.68124935       0.00748945      -0.00134100       0.01884291
Zn       0.09408296       2.07590091       2.47262150      -0.00592513       0.00418909      -0.01061358
Gd       2.29845168       3.34876458       6.59514067       0.00341736      -0.00087315      -0.00262414
Pt       2.29504284       3.35027011       3.49439793       0.00189745      -0.00123616      -0.01428242
Pt       0.09300478       2.07730428       5.08479535       0.00234956       0.00019943       0.07214671
Pt       2.30578422       0.80461472       1.88514362      -0.00270352       0.00251520      -0.04911903
Pt       2.30547053       0.80523381      11.30389482       0.00175041       0.00065158       0.04008862
Gd       2.29320109       3.35132763       0.38166495      -0.00161303      -0.00070002       0.00077949
Pt       2.29728035       3.34933635       9.70280045      -0.00128807       0.00069341      -0.00652662
Pt       0.09490325       2.07741258       8.10163098      -0.00143141      -0.00274139      -0.07109278
8
Lattice="4.167009353637695 0.0 -0.003509694943204522 -2.083009713762636 6.406156933351685 -0.011425010859966278 0.0 0.0 9.694415092468262" Properties=species:S:1:pos:R:3:forces:R:3 sample_seed=87029 sample_index_within_seed=0 benchmark_method=GBSA-TCL dft_verified=F structure_index=0 total_energy=-78.57073974609375 stress="-0.7554532885551453 0.005363596603274345 -0.010014494881033897 0.005363659001886845 -0.4479224979877472 -0.017757005989551544 -0.01001434400677681 -0.01775708980858326 -0.20150090754032135" pbc="T T T"
Eu       0.77817720       3.79681164       0.59033206      -0.00283668      -0.03636999       0.01256791
Eu       0.77439913       0.25171707       2.39203248       0.00261592       0.04829021      -0.00033503
Eu       2.85874894       1.12316915       9.02950484      -0.00040479       0.03856508      -0.00863169
Eu       2.85660157       1.12278855       5.44381152       0.00127506       0.03674306       0.00519692
Eu       0.77491680       3.79511819       4.18000258       0.00098497      -0.03357035      -0.00900516
Eu      -1.30784830       4.67062547       7.23430220      -0.00188575      -0.05087554      -0.00133508
Pt       2.86052851       2.42917698       2.38590897      -0.00324584      -0.02264442      -0.00231899
Pt       0.77334313       2.49340440       7.23413936       0.00349715       0.01986197       0.00386108
4
Lattice="4.620453357696533 0.0 -0.03327411040663719 -2.298749608565231 3.603397055347925 -1.6989660263061523 0.0 0.0 5.9825029373168945" Properties=species:S:1:pos:R:3:forces:R:3 sample_seed=87030 sample_index_within_seed=0 benchmark_method=GBSA-TCL dft_verified=F structure_index=0 total_energy=-17.2951717376709 stress="0.5433325171470642 0.47713008522987366 -0.2044345587491989 0.4771305024623871 0.1925024539232254 0.29532334208488464 -0.2044348418712616 0.2953232526779175 0.8019741177558899" pbc="T T T"
Pt      -1.61465997       3.44948886      -0.72932791       0.01540743       0.01481025       0.00158798
Hg       0.69268550       3.44549976       2.24218247      -0.00053256      -0.02184842      -0.04406594
Pt       0.69347395       2.26025921      -0.15294886      -0.01682848       0.01638168       0.09205419
Pt       2.99900186       1.02999224       0.34354979       0.00195361      -0.00934355      -0.04957619
11
Lattice="3.6629092693328857 0.0 -0.6945970058441162 -0.3017783584716474 5.295334820143043 -1.5533843040466309 0.0 0.0 10.057344436645508" Properties=species:S:1:pos:R:3:forces:R:3 sample_seed=87031 sample_index_within_seed=0 benchmark_method=GBSA-TCL dft_verified=F structure_index=0 total_energy=-133.8585205078125 stress="-1.8277901411056519 -0.09274014085531235 -0.07491160184144974 -0.09274112433195114 -1.378928303718567 -0.23268547654151917 -0.07491165399551392 -0.23268429934978485 -2.0794966220855713" pbc="T T T"
Gd       0.45997801       3.21277466       0.79763111      -0.12785900      -0.65374702      -0.60532731
Gd       1.83730964       5.08050992       8.11043610      -0.08371684       0.20548931      -0.40733939
Gd       1.13596638       4.12894290       4.40212979       0.02704317       0.49217612       0.15127632
Gd       2.80808218       1.08663420       3.18607527       0.01210703       0.17732799       0.09441395
Gd       3.50362357       1.71770692       6.86158778       0.10306671      -0.10551950       0.56033647
O        1.73085790       0.46958054       7.52078142      -0.02337963       0.00700055      -0.18442920
O        0.03835479       3.70332870       8.63459580      -0.01927549      -0.27169365      -0.10512695
O        0.85909694       2.35286890       2.93049482      -0.00770654      -0.27002060      -0.08595654
O        3.17159585       0.05103979       5.09731192      -0.05326673      -0.44603837      -0.26714092
O        0.28057483       1.19044606      -0.18762092       0.07040468       0.57005680       0.38799360
O        2.26601321       4.51208954       0.33123706       0.10258269       0.29496884       0.46130025
