12
Lattice="4.8001500607217595 -0.00023663798098847818 0.0007090627877569567 0.00065148981946118 7.338605309567002 0.0007468083482033176 -0.001317803131252009 -0.0015606132148496613 8.297710665726475" Properties=species:S:1:pos:R:3:forces:R:3 sample_seed=87000 sample_index_within_seed=0 benchmark_method=GBSA-TCL dft_verified=F structure_index=0 total_energy=-76.32418060302734 stress="0.00542055768892169 0.00037290446925908327 -2.3069886083249003e-05 0.0003729598829522729 0.016102951020002365 0.000950510788243264 -2.3177855837275274e-05 0.0009503796463832259 0.017890814691781998" pbc="T T T"
Eu       1.37115350       0.06843565       5.38260883       0.00265640       0.01352401      -0.03970566
Au       3.77207834       1.64281647       7.00876068      -0.00219151       0.01350879       0.01213459
Eu       3.77584510       0.07182200       1.75792723      -0.00579381      -0.00175293       0.03965299
Eu       3.77158618       3.73959419       1.23590161       0.00287965       0.00330190      -0.04726186
Au       3.77297320       5.31071517       4.27953494      -0.00015840       0.02082004      -0.00589948
Au       1.37278147       1.64238934       0.13115561       0.00287097       0.01419463      -0.01944135
Au       1.37316234       2.17142942       2.86128368      -0.00079933      -0.02160848       0.01167719
Au       3.77244369       5.83931295       7.01197034      -0.00081769      -0.01508917       0.00717108
Au       1.37332464       5.30847796       2.86141858      -0.00094849       0.02073160       0.01310723
Au       3.77284816       2.17487197       4.27796437      -0.00046355      -0.02423624      -0.00354007
Au       1.37348638       5.83830379       0.13199447       0.00123391      -0.01242079      -0.01486450
Eu       1.37171398       3.74287510       5.90512623       0.00153182      -0.01097341       0.04696985
10
Lattice="4.62307058062625 -0.0023450801804997526 -0.0002722847978611198 0.0038596956895328573 7.593536243117008 -0.0933617116101327 6.906238012396492e-05 -0.006240393840496914 7.685819796923692" Properties=species:S:1:pos:R:3:forces:R:3 sample_seed=87001 sample_index_within_seed=0 benchmark_method=GBSA-TCL dft_verified=F structure_index=0 total_energy=-96.07256317138672 stress="-0.020708540454506874 -7.231316703837365e-05 -8.628232899354771e-05 -7.236363308038563e-05 -0.018528850749135017 -0.0032092733308672905 -8.653395343571901e-05 -0.003209742484614253 -0.017977943643927574" pbc="T T T"
Pt       0.97232246       3.85946203       6.58377542       0.00005289      -0.02306013      -0.01011559
Eu       0.97410649       6.70726089       7.32931061      -0.00069891      -0.00636792      -0.00326578
Eu       3.28309371       1.78147416       5.83770540       0.00023340       0.00241583       0.00295641
Eu       3.28447972       5.29078669       4.73669250       0.00108522       0.00908343       0.00323287
Eu       3.28352326       4.13995276       1.14775494       0.00162914      -0.00960032       0.00323588
Eu       0.97225557       2.99847365       3.58672365      -0.00270692       0.01452265       0.04110742
Pt       0.97354253       5.88810724       2.44523990      -0.00073136       0.01336522       0.01882534
N        3.28358243       2.82979193       3.33937147       0.00045093      -0.02073682      -0.04394842
Eu       3.28196320       0.48814738       2.49050764       0.00131656       0.01499132      -0.01037247
Pt       0.97075122       0.00974104       4.64329005      -0.00063101       0.00538667      -0.00165562
9
Lattice="4.687166729814046 0.0023384066022866827 -0.00067022614539209 -0.0045549519029841985 7.501105956826865 -4.3308582623708745 0.0013695850319462876 -0.006960072726601245 8.658012887252074" Properties=species:S:1:pos:R:3:forces:R:3 sample_seed=87002 sample_index_within_seed=0 benchmark_method=GBSA-TCL dft_verified=F structure_index=0 total_energy=-80.24742126464844 stress="0.020351354032754898 1.9465791410766542e-05 4.590715434460435e-06 1.9508457626216114e-05 -0.01676062121987343 -0.0006692882161587477 4.6471122914226726e-06 -0.0006692916504107416 -0.017067305743694305" pbc="T T T"
Eu       4.45406555       4.28252028       0.15554965      -0.00092180      -0.01596891      -0.01180704
Eu       4.45243146       5.71843145       4.48206495       0.00102488       0.02090258      -0.00617292
Eu       4.45574667       1.25532900       3.57176297      -0.00036524      -0.00443019       0.01599723
Eu       2.11064691       1.25721530       0.49797515       0.00078737      -0.00692334      -0.01149048
Pt       4.45571356       1.25604446       7.06602342       0.00021177      -0.00351068      -0.00300937
Eu       2.10955257       6.93500178       1.68739810      -0.00117016       0.02058988       0.01054356
Eu       2.11069403       3.06319711       6.02130131       0.00070140      -0.01357102       0.00552265
Pb       2.11043040       3.74912063       2.73784219       0.00007023       0.00310535      -0.00126263
Pb       2.10888432       6.25669700      -1.59604054      -0.00033846      -0.00019372       0.00167898
14
Lattice="3.6727814338994635 0.0013618690160858414 -0.003651169257508537 1.8336158299376513 6.906925866533669 -0.04699271494971719 0.0048042582549776185 0.007296308635181861 9.581974884860694" Properties=species:S:1:pos:R:3:forces:R:3 sample_seed=87003 sample_index_within_seed=0 benchmark_method=GBSA-TCL dft_verified=F structure_index=0 total_energy=-156.74765014648438 stress="-0.011679006740450859 -0.0003621155919972807 -0.0014133339282125235 -0.0003621671930886805 -0.002527439733967185 0.0028447462245821953 -0.0014130217023193836 0.0028435843996703625 -0.003429437056183815" pbc="T T T"
Gd       0.67474721       2.49029870       9.52488897       0.00131756       0.02232178       0.01773643
O        2.50667869       6.18676342       6.36170327      -0.00164918      -0.03736414       0.02541663
Eu       2.50161357       5.72229273       1.90741022       0.00150333       0.03695941      -0.01650138
Eu       2.50585960       0.09566383       4.76879818       0.00245562      -0.01644202      -0.00905974
O        0.67063325       0.19077562       0.03106801      -0.00061907       0.01440638      -0.00350127
O        2.50624552       2.76273156       4.79039436      -0.00260325       0.00622055      -0.01455384
Gd       4.34038197       2.90807267       3.36596817      -0.00182194       0.02015772      -0.02951616
O        2.50925575       2.11729494       8.17872660       0.00057131      -0.00535114       0.00272049
Eu       4.34412457       6.67395711       8.11559419      -0.00025237      -0.02574773      -0.00257011
O        2.50392405       3.13464794       1.55153518       0.00009010      -0.00773161       0.03864745
O        4.33905029       5.18294380       3.20362553       0.00138344       0.02266962       0.00072566
O        4.34510674       4.26100117       7.97798696      -0.00002243      -0.02036878      -0.02832490
O        0.66829620       0.67489866       3.39461552       0.00070508       0.00983246      -0.00118756
Gd       2.50772400       3.89484157       6.75442391      -0.00105852      -0.01956264       0.01996842
6
Lattice="4.96028831632619 0.01887342907943153 -2.841551200952923 -1.651650437715767 4.64918781246243 -2.8414544742851886 -0.0034666288831813564 -0.00297041574878112 5.693843810865408" Properties=species:S:1:pos:R:3:forces:R:3 sample_seed=87004 sample_index_within_seed=0 benchmark_method=GBSA-TCL dft_verified=F structure_index=0 total_energy=-40.491554260253906 stress="-0.019840724766254425 -0.011540078558027744 0.003019848372787237 -0.011540133506059647 0.005011225584894419 0.005478243809193373 0.003019957570359111 0.005478289443999529 0.004387075547128916" pbc="T T T"
Eu       3.71385340       1.87101504      -0.92247771       0.00657086       0.00202064       0.00183292
Eu       2.11802169       3.04773315       1.92497812      -0.00490139      -0.00004795      -0.00118123
Pt       3.74314383       0.13557120       1.91925783      -0.00268493      -0.00305575       0.00380675
Au       1.26413452       0.12861355       0.49638021      -0.00207945      -0.00386856      -0.00042699
Au       1.26316253       0.12479146       3.34316322       0.00108118       0.00347923       0.00035372
Au       0.43723500       2.45167379      -0.92407084       0.00201369       0.00147237      -0.00438517
10
Lattice="5.906413646753949 0.4869225416400432 0.4305429978733839 0.3946937097466848 5.450612270000248 -2.375782562850805 0.8779581274863367 -1.428591671840481 8.898389222706081" Properties=species:S:1:pos:R:3:forces:R:3 sample_seed=87005 sample_index_within_seed=0 benchmark_method=GBSA-TCL dft_verified=F structure_index=0 total_energy=-68.45154571533203 stress="0.0025946360547095537 0.0012017495464533567 0.003320337040349841 0.001201713108457625 0.0007910252898000181 -0.0031708963215351105 0.003320183837786317 -0.003170913551002741 0.003715320024639368" pbc="T T T"
Eu       2.13004198       3.71849762       1.64511201       0.02686888      -0.03586565       0.00885252
Eu       4.88779794       1.23942029       3.04814107       0.02683723      -0.03741149       0.00806833
Au       1.99734329       1.47736782       4.64829025      -0.00024312       0.00101006       0.00035945
Au       4.75055050      -1.00026943       6.05024026       0.00022925      -0.00098224      -0.00036968
Eu       5.01254541       2.20921296       6.67763619      -0.02686893       0.03586754      -0.00885367
Eu       1.86009551      -0.76232166       7.65038968      -0.02683513       0.03741033      -0.00806745
Au       1.07834703       3.79931756      -1.52729675      -0.01731582       0.02764796       0.00166677
Au       5.18628214       3.55698471       0.95165594       0.01732274      -0.02765962      -0.00166078
Au       2.03771148       0.58526430       1.92492091       0.01665387      -0.02608183      -0.00113177
Au       3.83222426       1.32042570      -0.12477935      -0.01664892       0.02606493       0.00113633
10
Lattice="3.736368816788049 -0.0007653078223438513 -0.0005126919893646619 -1.8666047435877111 8.291831749100943 -0.4626638845162048 0.0009007297649617247 0.03306848519085707 9.073962609916974" Properties=species:S:1:pos:R:3:forces:R:3 sample_seed=87006 sample_index_within_seed=0 benchmark_method=GBSA-TCL dft_verified=F structure_index=0 total_energy=-91.82443237304688 stress="0.017378704622387886 -3.991091944044456e-06 -3.048378675885033e-05 -3.964291863667313e-06 0.018439505249261856 0.00018269494466949254 -3.0164705094648525e-05 0.0001826864609029144 0.01577570289373398" pbc="T T T"
O        0.34565470       3.97880643       3.43665285      -0.00008466       0.00150715       0.00582397
Eu       0.34529698       1.61974816       4.39764294      -0.00007645       0.00363529      -0.00576666
Eu       2.21434973       4.70468049       4.96597852      -0.00022533      -0.00361574       0.00565514
Eu       2.21319812       3.37510214       1.80329330       0.00039857       0.02735529       0.00519058
Eu       0.34665691       8.01351433       6.73675959       0.00026061      -0.00135866       0.02340791
Eu       0.34607044       6.60364148       2.16437102      -0.00019703       0.00171191      -0.02430695
Eu       0.34624718       2.95024957       7.56018167      -0.00044807      -0.02849473      -0.00473461
O        2.21386026       2.34479909       5.92740007       0.00013483      -0.00035511      -0.00608483
Pb       2.21496722       5.68944577       8.41773256      -0.00022541      -0.01647677      -0.03939229
Pb       0.34422276       0.63587667       0.94540676       0.00046301       0.01609141       0.04020771
20
Lattice="5.7952045164705055 -0.0009881055875747564 0.00036579908150492134 0.0011284988430709812 6.056536661938384 0.014301838329259834 -0.0019183431637711948 0.016868962536680163 8.587672758919197" Properties=species:S:1:pos:R:3:forces:R:3 sample_seed=87007 sample_index_within_seed=0 benchmark_method=GBSA-TCL dft_verified=F structure_index=0 total_energy=-214.1519012451172 stress="-0.010012706741690636 9.54365823417902e-05 8.317136962432414e-05 9.459698776481673e-05 -0.010340958833694458 -0.0021794436033815145 8.190802327590063e-05 -0.002177779097110033 -0.0067872824147343636" pbc="T T T"
O        5.49856897       2.02633847       3.88287571       0.00892654       0.01120520      -0.00740458
Eu       3.60170923       1.86440760       8.13523708      -0.00367349      -0.01952253      -0.01682173
Y        3.48652113       4.55405269       6.01356653      -0.01065052       0.00193953       0.00867018
O        4.55039176       0.37883574       1.05820524      -0.00114450       0.00217824      -0.01219385
Gd       3.48469145       4.54403914       1.72955529      -0.00714511      -0.00367271      -0.00018919
O        1.64565611       5.66931071       2.43323253      -0.00174931      -0.00299777       0.00534362
Gd       3.38696909       1.23061199       3.89282899       0.01094411      -0.02839606       0.02522695
Y        0.58251059       1.52614603       6.00577843       0.01002167       0.00363877       0.01052279
O        2.42298497       2.64224115       2.43001878       0.00067471      -0.00423095       0.00638603
Eu       0.46482978       4.89359542       8.14541497       0.00924118      -0.01895431      -0.01735589
O        1.40664204       1.07991392       8.14386953       0.00501052       0.00921045       0.00643202
Gd       0.68192108       4.25965846       3.89710711      -0.00850917      -0.02901831       0.02565740
O        1.67041505       5.70367215       5.33362645       0.00947011       0.02174546       0.00287350
O        5.29579032       3.39776794       6.65062117       0.00464743       0.00876743      -0.01226122
Gd       0.58526452       1.51635557       1.72211259       0.00652232      -0.00381843       0.00136315
O        5.31576599       3.40807549       1.06901635       0.00208557       0.00100736      -0.01453702
O        4.36676643       5.05513109       3.88940040      -0.00995341       0.01034088      -0.00691720
O        4.56797956       0.36974790       6.64137179      -0.00574768       0.00765650      -0.01042914
O        2.40219987       2.67312246       5.33180746      -0.01096028       0.02298878       0.00130481
O        2.66127501       4.10832911       8.15153781      -0.00801095       0.00993252       0.00432914
6
Lattice="4.337021004384341 -0.004022874713668564 0.7484918833866456 2.10882292145056 3.792254036942483 0.7437754342081588 -0.010597874546257463 -0.006954834810906146 12.903086743394482" Properties=species:S:1:pos:R:3:forces:R:3 sample_seed=87008 sample_index_within_seed=0 benchmark_method=GBSA-TCL dft_verified=F structure_index=0 total_energy=-35.92585754394531 stress="0.014378639869391918 -0.0016376370331272483 -0.00919719971716404 -0.0016376933781430125 0.018279816955327988 -0.0014329527039080858 -0.009197241626679897 -0.0014328015968203545 0.002155934227630496" pbc="T T T"
Eu       0.74439671       1.18202772       1.04323987       0.00170181       0.00055383      -0.00866240
Ga       2.53032551       2.23528204       3.63205516       0.00542530       0.00164583      -0.04263783
I        3.26261526       0.10448560      12.23340588      -0.00402938      -0.00083137       0.01505736
Eu       4.31813331       0.73704573       6.19094466      -0.00277055      -0.00108609       0.01351519
Ga       4.64073770       3.47587626       4.34671487      -0.00516526      -0.00148611       0.04172860
I        1.78894532       1.80749253       7.90537762       0.00483807       0.00120393      -0.01900090
4
Lattice="3.767927409163116 -0.025426456052614343 0.030971971244966992 0.039851790264902716 5.307809793943284 0.03251439392766563 -0.035775690858848574 -0.018703787780437263 5.316058738025654" Properties=species:S:1:pos:R:3:forces:R:3 sample_seed=87009 sample_index_within_seed=0 benchmark_method=GBSA-TCL dft_verified=F structure_index=0 total_energy=-30.280357360839844 stress="0.020326165482401848 0.013901212252676487 0.014911205507814884 0.013901167549192905 -0.02602291665971279 0.02149014361202717 0.014911336824297905 0.021490229293704033 -0.02720061130821705" pbc="T T T"
Eu       1.51610877       1.08656706       2.63253878      -0.01167190      -0.01230854       0.02009688
Eu       1.53823166       3.74813394       0.05395466       0.01139049       0.01134474      -0.02143639
Au       3.41374597       3.72104404       2.76447464      -0.00315035       0.00653679      -0.02507928
Au       3.37257952       1.06897502       5.26828310       0.00343176      -0.00557301       0.02641877
16
Lattice="3.7775505101628455 -3.333502520152131e-05 -0.0022277655065085153 -6.38670471903226e-05 3.388030991048734 -0.1575844593063527 0.010079750085345932 -0.788926795405263 17.092914211669793" Properties=species:S:1:pos:R:3:forces:R:3 sample_seed=87010 sample_index_within_seed=0 benchmark_method=GBSA-TCL dft_verified=F structure_index=0 total_energy=-136.47311401367188 stress="0.02230234630405903 -1.4175720025377814e-05 3.7323507058317773e-06 -1.393680304317968e-05 0.014135463163256645 0.00021772962645627558 4.525097210716922e-06 0.00021812881459482014 0.016999995335936546" pbc="T T T"
S        0.13538058       0.52535411       0.68459178      -0.00001027       0.02332023       0.00643501
Gd       0.13883182      -0.62699418       6.58581303       0.00001817      -0.00041083      -0.01245305
Fe       2.02892170       1.05326273       8.79187436       0.00000999      -0.03182672      -0.00500460
Li       0.13670123       2.05982995       2.91888107       0.00001546      -0.01543060      -0.03854074
Fe       2.02422893       2.23225794       0.78738330      -0.00000155       0.02285471      -0.00670448
Gd       0.14383751      -0.13939198      15.04360424       0.00000523       0.00653526       0.00695871
Gd       0.14151468      -0.21397458      11.12261223       0.00000805      -0.01868146      -0.00022343
O        0.14259973       1.50699270      12.91992669      -0.00000185      -0.00648496       0.01127540
O        2.02779262       1.49295137       6.86464378      -0.00000537      -0.01851350       0.00008389
O        2.03007498       1.58973133      10.72856686       0.00000406      -0.03024002       0.00025386
Fe       2.02613576       0.57641461       4.04937844      -0.00001669       0.02691355       0.00613505
O        0.13780653       0.83027106       4.80466559      -0.00001142       0.05137026       0.00940545
Fe       2.03143712       1.49968931      13.02522350       0.00000394      -0.00607906       0.00595082
O        2.03272566       1.40021779      15.18544305      -0.00001092       0.00725031       0.01558959
O        2.02547257       2.27715255       2.90237759      -0.00001032       0.03073779       0.00081524
O        0.14016970       0.13959489       8.84328033       0.00000358      -0.04131512       0.00002319
9
Lattice="3.711902174346118 -0.0014680643167152851 0.5702815180211555 1.5754114464172677 6.584238516222409 2.1130732988518903 0.01297677807831869 0.03740248420301891 12.225727137023553" Properties=species:S:1:pos:R:3:forces:R:3 sample_seed=87011 sample_index_within_seed=0 benchmark_method=GBSA-TCL dft_verified=F structure_index=0 total_energy=-76.11348724365234 stress="0.025428052991628647 -0.0029419041238725185 -0.0023874223697930574 -0.0029418785125017166 0.0021659182384610176 0.008882191963493824 -0.0023873161990195513 0.008882531896233559 0.007872290909290314" pbc="T T T"
Eu       2.45369459       2.15790398       7.74666896       0.00386058       0.01267548      -0.02581064
Eu       3.76830082       2.39584324      11.53383564       0.00029450       0.02329075      -0.00053472
Eu       4.27457482       5.64422082       8.27440278      -0.00000049      -0.02334438      -0.00003898
Eu       1.87619682       5.88322858      11.48905705      -0.00359781      -0.01156547       0.02700366
Al       1.03350304       1.49294189       4.64448102      -0.00000067       0.01511337      -0.00159940
Al       3.28514832       6.51173075       2.36697895      -0.00045380      -0.01428269       0.00139542
Eu       2.87017386       4.36387696       5.05823107      -0.00031379       0.02557379       0.00406850
Eu       1.44874120       3.64345922       1.95466178       0.00017822      -0.02738972      -0.00485320
Sc       3.22768186       0.71039210       2.73416426       0.00003327      -0.00007111       0.00036933
8
Lattice="4.341233618796406 -0.00031276731199563157 0.0001340709683210646 -2.169913781297197 6.64343685861287 0.008145873508924564 -0.00012439767424287068 -0.011499139114544409 9.93242864810191" Properties=species:S:1:pos:R:3:forces:R:3 sample_seed=87012 sample_index_within_seed=0 benchmark_method=GBSA-TCL dft_verified=F structure_index=0 total_energy=-71.91088104248047 stress="-0.01238002348691225 0.0008097596582956612 0.00018311401072423905 0.000809706631116569 0.000985626713372767 -0.000478338886750862 0.0001829828106565401 -0.00047827642993070185 -0.007780903484672308" pbc="T T T"
Eu       2.26068429       0.37879590       0.86797369      -0.00025399       0.00036052       0.01497113
Eu       0.09051384       3.15003375       9.56692497      -0.00079227      -0.00116847      -0.01393372
Eu       2.26077080       4.07403691       2.73791330      -0.00011422      -0.01437065       0.00038391
Au       0.08989977       1.80011560       2.73280939      -0.00006284       0.01270143       0.00209063
Eu       2.25990604       0.37390732       4.59582923       0.00019305       0.00111340      -0.01352541
Au       2.26010458       1.72692224       7.70307197       0.00013420      -0.01268021      -0.00205584
Eu       0.08927771       3.15182056       5.83988036       0.00039692      -0.00038457       0.01292075
Eu       2.26033880       6.09610323       7.70633891       0.00049915       0.01442856      -0.00085147
8
Lattice="4.351500737018301 0.0003611412520800705 -0.0029854422256795046 -0.00043734530933380787 5.310192656325019 0.005949148879124554 0.004740659557628979 -0.0011060346490827412 6.690604982247031" Properties=species:S:1:pos:R:3:forces:R:3 sample_seed=87013 sample_index_within_seed=0 benchmark_method=GBSA-TCL dft_verified=F structure_index=0 total_energy=-70.9350357055664 stress="-0.000559224805328995 -8.549915946787223e-06 0.0011835972545668483 -8.25204642751487e-06 -0.016388555988669395 -3.4884440538007766e-05 0.0011836527846753597 -3.557934905984439e-05 0.0016494672745466232" pbc="T T T"
Gd       0.01314385       4.49557726       1.68603512      -0.00010260      -0.00003389       0.02706605
Pt       2.19236363       0.51340040       6.24497141      -0.00060229      -0.00272280       0.00085083
Pt       2.19214025       3.16836075       6.24943059      -0.00054639       0.00160138      -0.00110157
Pt       2.18921158       1.83456220       2.03149712       0.00005963       0.00342019      -0.02860312
Pt       2.19035264       4.49911795       3.77525596      -0.00067455       0.00533842       0.02965632
Pt       0.01561581       4.49606857       5.36800967       0.00129239      -0.00296604       0.01871985
Gd       0.01504757       1.84247636       4.12383625      -0.00030467      -0.00375224      -0.02766721
Pt       0.01232189       1.84174630       0.44184658       0.00087853      -0.00088512      -0.01892098
12
Lattice="4.634918076897164 0.00048059469162120533 0.00027584272224788226 -0.0008495229214925034 8.265351194356773 -0.0001395179800126535 -2.0679074571127047e-05 -9.98931554437796e-05 9.829650159544574" Properties=species:S:1:pos:R:3:forces:R:3 sample_seed=87014 sample_index_within_seed=0 benchmark_method=GBSA-TCL dft_verified=F structure_index=0 total_energy=-102.35196685791016 stress="0.016240430995821953 7.615030426677549e-06 3.441311127971858e-05 7.674567314097658e-06 0.005613028537482023 -5.869450887985295e-06 3.449295400059782e-05 -6.225877768883947e-06 0.005736334715038538" pbc="T T T"
Au       3.77897002       3.72886772       5.83908732      -0.00019997       0.02142606      -0.04103391
Au       1.46173300       3.65436400       0.92362485      -0.00032726      -0.02105302      -0.04014026
Eu       3.77870490       5.96289566       0.51836336      -0.00012313      -0.00491138      -0.00491828
Eu       1.46120449       4.55510362       7.74542172       0.00009841      -0.00597550      -0.02377390
Eu       3.77900658       2.82798988       2.83117727       0.00003511       0.00802913      -0.02408975
Au       1.46061323       7.78655414       8.31558530       0.00009030      -0.02076682       0.04123861
Eu       1.46154298       0.42323034       1.49466413       0.00008646      -0.00641846       0.02189979
Eu       3.77880956       1.82947296       8.72117443       0.00008200      -0.00455849       0.00518718
Eu       3.77824572       6.96046117       6.40865337       0.00023979       0.00619863       0.02441722
Au       3.77804996       7.86257943       3.40102154       0.00024080       0.02054089       0.04107897
Eu       1.46110816       5.55504649       3.80580834      -0.00005575       0.00254560       0.00490741
Eu       1.46168718       1.42072476       5.43344870      -0.00016674       0.00494333      -0.00477305
4
Lattice="3.8228236879870123 0.0017779395097092423 0.6009840364244645 1.8625808174267706 3.338539756009123 0.601091096913194 0.03766547041197699 0.02492761446499259 12.238535266267256" Properties=species:S:1:pos:R:3:forces:R:3 sample_seed=87015 sample_index_within_seed=0 benchmark_method=GBSA-TCL dft_verified=F structure_index=0 total_energy=-32.459529876708984 stress="-0.03483882173895836 0.0010025613009929657 -0.009455833584070206 0.0010025928495451808 -0.03629431501030922 -0.003957102075219154 -0.00945573952049017 -0.003957111854106188 0.034740250557661057" pbc="T T T"
Li       2.26534563       0.20062691       1.02171897       0.00084809       0.00086368      -0.00203283
Eu       3.20032833       2.99539859       7.53926401      -0.00001706       0.00029597       0.00116594
Eu       3.73460701       1.06577525       4.15050364       0.00583859       0.00298630      -0.04115677
Eu       4.62722478       1.59117302      10.93013393      -0.00666961      -0.00414596       0.04202366
14
Lattice="6.9712014974164465 7.822211568136517e-05 -2.463915039144643 -3.485237771367247 6.036608051352281 -2.46123782205791 -0.0014209089707897073 0.001715171451715891 7.391334750961127" Properties=species:S:1:pos:R:3:forces:R:3 sample_seed=87016 sample_index_within_seed=0 benchmark_method=GBSA-TCL dft_verified=F structure_index=0 total_energy=-148.11984252929688 stress="0.006717031821608543 -8.293484279420227e-05 -0.0002238458109786734 -8.298089960590005e-05 0.005736043211072683 -9.466975461691618e-05 -0.00022412977705243975 -9.471196244703606e-05 0.005627120845019817" pbc="T T T"
Gd       2.33976391       5.07706991      -3.79816752      -0.00644854       0.02708462      -0.02462655
Gd      -1.58938746       5.83715969       3.59203453       0.01914304      -0.00391219       0.02401968
Gd      -0.27248066       2.06941120       3.58948673      -0.01466382       0.01256449      -0.00200980
Gd       2.33819281       3.57519703      -0.09995532       0.00992391      -0.00507273       0.00849862
Pt       0.15491563       4.33916368       1.69250922       0.01792435      -0.01436621      -0.02100825
Gd      -1.58052183       2.82274005      -0.10151106       0.01004602      -0.00672918      -0.00410804
Pt       0.16570922       4.32865012      -1.99603869      -0.01853153       0.01145639      -0.04380818
Pt       4.18105322       1.30827470      -0.30021398      -0.03264814      -0.00057493       0.02263941
Pt       4.25019675       3.28004490       2.17580034       0.02502275      -0.01546443      -0.00747620
Pt      -2.72164767       5.38007672       0.93745521       0.00399364       0.01221474       0.01963019
Pt       2.51111756       2.35770622       4.63979352      -0.00132910       0.01811478       0.01128591
Gd       3.20621589       0.56251726       2.35675083       0.01093657      -0.01063126      -0.01292578
Pt       0.69376256       1.30729565       0.93819270      -0.03945851       0.00247569       0.00445975
Pt       5.98754032       0.26935088       3.39669894       0.01608939      -0.02715977       0.02542929
12
Lattice="5.782484975597865 0.01931999267622909 0.0030281906962645526 -2.7042576317590794 4.877528814435476 9.176049863305104e-05 -0.0009717060509452472 -0.00069628202232043 9.296895186736277" Properties=species:S:1:pos:R:3:forces:R:3 sample_seed=87017 sample_index_within_seed=0 benchmark_method=GBSA-TCL dft_verified=F structure_index=0 total_energy=-98.00138854980469 stress="0.025700701400637627 0.008022218011319637 0.00203858595341444 0.008021208457648754 0.012591240927577019 0.0011466934811323881 0.002038532169535756 0.0011464901035651565 0.025745153427124023" pbc="T T T"
Eu       1.03326224       0.09849057       0.67837179       0.00027260       0.00292543      -0.00197743
Pt       3.92730883       0.10873634       5.32595925      -0.01279887       0.00570113       0.00984220
Eu      -0.31996034       2.53676373       3.00367054       0.00161755       0.00032788      -0.00262444
Eu      -0.31920320       2.53633901       7.64868587      -0.00091433       0.00099868       0.00077338
Pt       3.92407943       0.10854612       0.67836784       0.00459783      -0.00244476      -0.00242636
Eu       1.03462389       0.09921034       5.32455215       0.00335088      -0.00492764       0.00296608
Pt       2.86920208       1.11877009       3.00353277       0.01967221      -0.00151426      -0.01604348
Pt       2.57273061       2.54771253       0.67818518      -0.00245764      -0.00588357      -0.00036561
Pt       2.27549322       3.97482806       7.64987651      -0.02268463       0.00107915       0.01353315
Pt       2.86803639       1.11795688       7.65184029       0.02448159      -0.00053767      -0.01340187
Pt       2.27425025       3.97437075       3.00223645      -0.01830013       0.00088076       0.00343234
Pt       2.57347631       2.54677666       5.32639358       0.00316288       0.00339491       0.00629206
16
Lattice="4.179531191281005 -0.003909727437663246 0.005143065911674563 -2.0838146613980064 8.95318643967199 -0.5845419403953777 -0.017671373569368085 0.007339910743485918 11.92557203714839" Properties=species:S:1:pos:R:3:forces:R:3 sample_seed=87018 sample_index_within_seed=0 benchmark_method=GBSA-TCL dft_verified=F structure_index=0 total_energy=-151.2254180908203 stress="-0.015219909138977528 2.9017060114711057e-06 2.152946763089858e-05 2.937615363407531e-06 -0.01464312057942152 -7.058837945805863e-05 2.1403388018370606e-05 -7.06365390215069e-05 -0.01663164794445038" pbc="T T T"
P        0.57844878       6.53519405       5.07398956      -0.00026493       0.00093340       0.00546743
Eu       0.57698790       6.71185794       8.03938694      -0.00080878      -0.00113046      -0.00214190
Eu       0.57096236       5.81016574      11.19604746       0.00018164       0.02304594      -0.01654229
Eu      -1.50881607       8.20798272       3.63202209      -0.00042851      -0.01859614       0.01362642
Eu       2.67624420       5.52171431       2.25707122       0.00160325       0.00104824      -0.02052106
Eu      -1.51826079       8.93154605      11.31949781       0.00005561       0.03665043       0.03314336
Eu       2.66621264       4.48484060       5.85290599      -0.00059051      -0.00569336      -0.00586186
Eu       2.66959011       1.97393246       3.02991960       0.00009887      -0.00389662      -0.00065589
Eu       2.65826107       2.93983881      11.37207030      -0.00002844       0.02006387      -0.02464183
Eu       2.66212546       0.48402086       6.70185889       0.00007276      -0.00396913       0.01452857
P        0.58414964       3.49291501       1.36498945       0.00060177      -0.01688084      -0.01313154
P        2.65895162       0.56029103       9.68117161      -0.00022508      -0.00819717       0.01871156
P        0.58527176       7.98156060       1.37909991       0.00009342      -0.00899121       0.01968217
Eu       0.57224678       2.63411375       8.55730578      -0.00039379      -0.00974528       0.00298992
P        2.66353037       4.84377870       9.01405852      -0.00015664      -0.00298801      -0.01836933
P        0.57542980       2.08354162       5.44851524       0.00018937      -0.00165367      -0.00628386
4
Lattice="4.8819194797920025 -0.002135698424841128 2.8212428970521186 1.6318782676051093 4.602808498533162 2.8185990171730593 -0.0009715558663893762 0.00042734173683942896 5.6387449589225955" Properties=species:S:1:pos:R:3:forces:R:3 sample_seed=87019 sample_index_within_seed=0 benchmark_method=GBSA-TCL dft_verified=F structure_index=0 total_energy=-26.943470001220703 stress="-0.03162020072340965 0.005743702407926321 0.002225629985332489 0.005743653513491154 -0.02957860566675663 -0.0014968697214499116 0.002225723583251238 -0.001496742246672511 -0.02581494115293026" pbc="T T T"
Hg       2.30559898       1.15904202       2.31195652       0.00062027      -0.00066137       0.00100132
Eu       3.93550356       2.30909408       5.13209967      -0.00271200      -0.00153646       0.00114660
Pb       5.56261651       3.45775649       7.95261140       0.00000259       0.00237115      -0.00074177
Eu       0.67603268       0.00839544       5.13258456       0.00208915      -0.00017332      -0.00140614
4
Lattice="3.9594935440376062 0.007223115259585722 -1.2337265872002428 -0.8119585473910935 5.389094027247103 -2.5742945777147233 0.04782081259728315 0.020163504865945273 7.117075629723719" Properties=species:S:1:pos:R:3:forces:R:3 sample_seed=87020 sample_index_within_seed=0 benchmark_method=GBSA-TCL dft_verified=F structure_index=0 total_energy=-32.433841705322266 stress="0.023572077974677086 -0.0011766396928578615 -0.018584951758384705 -0.0011765623930841684 -0.047886986285448074 -0.007512334268540144 -0.018584949895739555 -0.007512202952057123 -0.03715270757675171" pbc="T T T"
Eu       0.50589828       3.11835051       5.29383260       0.00475051      -0.00262525      -0.00656638
Eu       3.00222940       0.66257675      -0.66590571      -0.00297968       0.00328890       0.00728275
Eu      -0.63127865       4.58169565       1.64380320       0.00024096       0.00016532      -0.00057932
Mg       1.75548852       1.89130477       2.31374978      -0.00201177      -0.00082898      -0.00013706
5
Lattice="5.141345183090978 -0.0002995179099768279 -5.6216402418452326e-05 0.00050062774430623 5.140892614068857 0.000669954027115791 3.3483970071180506e-05 -0.00040034921614597746 5.142794568124039" Properties=species:S:1:pos:R:3:forces:R:3 sample_seed=87021 sample_index_within_seed=0 benchmark_method=GBSA-TCL dft_verified=F structure_index=0 total_energy=-40.25724411010742 stress="0.051418598741292953 0.0004975780029781163 -5.543433508137241e-05 0.0004976962227374315 0.05008823797106743 0.0006669309223070741 -5.5214819440152496e-05 0.0006669127033092082 0.05565496161580086" pbc="T T T"
Eu       1.81413793       2.34281283       4.94512136       0.00006852       0.00000283       0.00045987
Eu       1.81392406       4.91361072       2.37420567       0.00072061      -0.00023261       0.00121987
Eu       4.38533216       4.91296590       4.94578254      -0.00113075       0.00019879      -0.00005857
H        1.81479141       4.91325537       4.94713660      -0.00023502       0.00000804      -0.00162986
Pb       4.38407296       2.34284835       2.37369256       0.00057667       0.00002296       0.00000868
8
Lattice="4.785798498139149 0.00021358736388957063 -0.0013254272732573114 -0.0010037571904558812 5.073094017403302 -2.9430678690022063 0.0016159285518045222 0.00011754816730340956 5.865770993547295" Properties=species:S:1:pos:R:3:forces:R:3 sample_seed=87022 sample_index_within_seed=0 benchmark_method=GBSA-TCL dft_verified=F structure_index=0 total_energy=-61.559242248535156 stress="-0.0037495652213692665 -6.225127435754985e-05 -0.0005783343804068863 -6.148341344669461e-05 -0.03551466390490532 0.0029385555535554886 -0.0005786284455098212 0.002940751612186432 -0.04149972274899483" pbc="T T T"
Gd       1.56677305       4.99398224       2.68706210       0.00028418      -0.00706184       0.01132625
Pt       1.56613756       4.96847091      -0.24716442       0.00023599       0.00390494       0.00984981
Pt       3.95902287       1.64155453      -0.24519231       0.00015979      -0.00331172      -0.00670097
Gd       3.96009161       1.61614388       2.68677107      -0.00114083       0.00985210      -0.01592810
Pt       3.95952503       4.13932086       1.19390324      -0.00101167       0.00653532      -0.00194465
Pt       1.56726331       2.47112880       4.17957445       0.00128367      -0.00968903       0.00376853
Pt       3.95850280       4.13721950      -1.69083816       0.00029744      -0.00103547       0.00211756
Pt       1.56667641       2.47291406       1.19873873      -0.00010853       0.00080560      -0.00248861
8
Lattice="3.6335534868972474 -0.003863744893307756 0.0033848511807856273 0.009588978086330857 6.539738536808599 -3.267391051992776 -0.00808436121334514 -0.01622404048928627 8.146687658983629" Properties=species:S:1:pos:R:3:forces:R:3 sample_seed=87023 sample_index_within_seed=0 benchmark_method=GBSA-TCL dft_verified=F structure_index=0 total_energy=-69.67201232910156 stress="0.01625584252178669 -0.0017609554342925549 -0.0015352426562458277 -0.0017610882641747594 0.010148818604648113 0.001094016246497631 -0.0015351929469034076 0.001093885162845254 0.015244134701788425" pbc="T T T"
Eu       3.15488916       5.56173402       2.87784126       0.00094672       0.00513861       0.00129066
Pt       1.33591573       4.82770682       5.33614358      -0.00103516      -0.00059783      -0.00099246
Eu       3.15085849       2.41672337       4.44909752       0.00008276      -0.00112289       0.00488157
Eu       3.15178554       0.71086220       1.34558738       0.00077620       0.00138316      -0.00504923
Pt       1.33704969       3.17027706       2.01988102       0.00005936      -0.02000230      -0.04337678
Au       1.33068895       1.55777102       6.96815082      -0.00021436      -0.00048624       0.00142270
Eu       3.15763154       4.10535731      -0.35003601      -0.00060517      -0.00493891      -0.00117507
Pt       1.34178843       6.50055607       0.50454956      -0.00001036       0.02062639       0.04299858
4
Lattice="4.504058269723972 -0.00042940571070451564 2.6015923802385106 1.5018023205104873 4.246388290043618 2.601532126676463 -0.000911957434055735 -0.0006158318606787164 5.201704285793222" Properties=species:S:1:pos:R:3:forces:R:3 sample_seed=87024 sample_index_within_seed=0 benchmark_method=GBSA-TCL dft_verified=F structure_index=0 total_energy=-33.32073974609375 stress="-0.007657445035874844 0.0009357320959679782 0.0006199553026817739 0.0009357786038890481 -0.00809791311621666 0.00034450183738954365 0.0006196906324476004 0.0003447074559517205 -0.008298946544528008" pbc="T T T"
Pt       2.98218894       1.17829722       4.42104094      -0.00013275      -0.00014841      -0.00012699
Eu       1.48032174       0.11655664       1.82000919       0.00216575       0.00157013      -0.00047390
Au       1.48048152       3.30149904       7.02218287       0.00001126      -0.00039652      -0.00073549
Eu       4.48384422       2.23987080       7.02200356      -0.00204429      -0.00102519       0.00133637
10
Lattice="4.858664245026442 -0.0006440575555676249 -1.2501941359223985 -0.32172622033825915 4.8482931923636885 -1.2526762935105824 0.048200540878135516 0.05772680184260641 10.257996960609473" Properties=species:S:1:pos:R:3:forces:R:3 sample_seed=87025 sample_index_within_seed=0 benchmark_method=GBSA-TCL dft_verified=F structure_index=0 total_energy=-94.93659210205078 stress="0.014918508939445019 9.858192061074078e-05 -0.00046445164480246603 9.867675544228405e-05 0.016104547306895256 0.0014450389426201582 -0.0004644171567633748 0.0014452605973929167 0.015240000560879707" pbc="T T T"
H        3.32423946       2.46791363       1.27486107       0.00649458       0.00559707       0.01908924
Gd       2.09518698       3.74825649       6.54145669      -0.00018720      -0.00012041      -0.00170818
Gd       3.87323796       3.05129233       3.38715079       0.00014136      -0.00012250       0.00018887
Gd       1.60509507       0.62781804       4.63971619      -0.00020804      -0.00058327      -0.00108780
Gd       3.06215770       4.77870394       0.23350351      -0.00034475       0.00011933       0.00029431
Gd       4.68492560       1.32346331       6.54155221       0.00014674       0.00002889      -0.00028393
Hg       2.72668100       1.82883035       8.99974643       0.01065029       0.01059259       0.03923931
Gd       0.79313476       2.35458249       1.48400012       0.00019627       0.00005702       0.00136335
Hg       0.16188245       4.27372139      -0.97459070      -0.01087220      -0.01031958      -0.03924254
H        4.42193169       3.63417239       5.49935436      -0.00601706      -0.00524915      -0.01785267
12
Lattice="5.024679971396828 -0.0007499798608679217 0.87187068793671 2.4374752936894746 4.394051831817952 0.8729520070039427 -0.0003667116414887217 -0.003114078207042392 14.914222928639052" Properties=species:S:1:pos:R:3:forces:R:3 sample_seed=87026 sample_index_within_seed=0 benchmark_method=GBSA-TCL dft_verified=F structure_index=0 total_energy=-112.1482925415039 stress="0.005533225834369659 -6.840557034593076e-05 0.00040461745811626315 -6.825983291491866e-05 0.005681316368281841 0.0002153107343474403 0.00040472077671438456 0.00021512588136829436 0.0026079711969941854" pbc="T T T"
Eu       2.83267622       0.67658263      13.32922620       0.00085276       0.00032133      -0.00137523
Pt       3.38709303       1.00446553      10.13687547       0.00657216       0.00409167      -0.03701474
Pt       2.60462064       3.50076090      14.65053038       0.00270346       0.00167366      -0.01729764
Eu       6.02179833       2.55611359       9.87096308       0.00005500      -0.00053218      -0.00119755
Eu       1.76881073       0.05189816       4.55479595      -0.00367614      -0.00112097       0.02124047
Eu       4.97470944       1.93670351      15.90563354      -0.00033511       0.00012875       0.00039393
Eu       3.12853688       3.81067093      11.62737937       0.00139961       0.00085553      -0.00545821
Eu       2.08376510       3.19576154       2.74371365      -0.00054022       0.00076756       0.00243503
Pt       2.28157196       0.35372283       1.60032150      -0.00767122      -0.00486624       0.04216978
Eu       3.90199733       1.30859392       7.17965100       0.00052043      -0.00059214      -0.01152113
Pt       5.49763350       2.24600583      12.88450270      -0.00062728      -0.00031945       0.00844074
Pt       6.56573555       2.87684144       6.74194665       0.00074659      -0.00040753      -0.00081537
10
Lattice="5.204996223483282 -0.026287196450692864 -2.080462838711179 -2.1220584987918567 5.131893205118511 -0.7625425503899813 0.15852909947481625 0.04578623535074309 7.931634640881109" Properties=species:S:1:pos:R:3:forces:R:3 sample_seed=87027 sample_index_within_seed=0 benchmark_method=GBSA-TCL dft_verified=F structure_index=0 total_energy=-103.98863220214844 stress="-0.008048108778893948 0.0002908039605244994 -0.00513850012794137 0.0002911618212237954 -0.003041149815544486 -6.287744326982647e-05 -0.005138148088008165 -6.281873356783763e-05 -0.008532649837434292" pbc="T T T"
Pt      -0.04657891       0.78161797       3.18478097      -0.03265293       0.00361217      -0.02745087
Gd       2.83852291       0.82898024       2.89375046      -0.02372075      -0.01609554       0.00200678
Gd       0.01344498       0.58165801       0.10052457      -0.00132759       0.02206673      -0.01959237
Gd       0.70047943       3.14805908       4.74002272       0.00149801      -0.02171745       0.01911793
Pt       3.07201083       4.14534828       2.61589268       0.02295788       0.03865022      -0.02140397
Gd       3.08042995       2.87455994      -0.13375198       0.02383656       0.01578174      -0.00202049
Pt       3.89906843       2.88446675       4.94487307      -0.03159995       0.00479150      -0.02832168
Pt       0.76056667       2.94815817       1.65567335       0.03262008      -0.00345553       0.02745172
Pt       0.72496273       4.69006080      -0.61852604      -0.02320974      -0.03867844       0.02183090
Pt       2.17843837       0.86484758       5.74674024       0.03159858      -0.00495535       0.02838203
12
Lattice="4.416477302561386 0.008126003377147166 0.0007433574491407604 -2.217217757536843 3.8200251555252795 -0.0010025655532678425 -0.0022473531652266363 0.002925726112087728 12.524869966032849" Properties=species:S:1:pos:R:3:forces:R:3 sample_seed=87028 sample_index_within_seed=0 benchmark_method=GBSA-TCL dft_verified=F structure_index=0 total_energy=-79.13900756835938 stress="-0.003241548780351877 0.0026015182957053185 -0.0004550211888272315 0.0026015015318989754 -0.00027716817567124963 0.0008660216117277741 -0.00045475384104065597 0.0008662939071655273 -0.003767220303416252" pbc="T T T"
Zn       2.30548494       0.81282530       4.53586335       0.00589394      -0.00413594      -0.03452418
Zn       0.09616060       2.08291005      10.79678121      -0.00838632       0.00420261      -0.02729883
Zn       2.30583423       0.81334864       8.75486311       0.00769265      -0.00322958       0.04875356
Zn       0.09673900       2.08084678       2.49548576      -0.00657884       0.00408077       0.03235806
Gd       2.30270523       3.36078168       6.64781247      -0.00352895       0.00257160      -0.00187397
Pt       2.30019488       3.36128525       3.52151747       0.00136404      -0.00090093      -0.01106545
Pt       0.09571932       2.08261563       5.12923894      -0.00189911       0.00169282       0.03216666
Pt       2.30654796       0.81075953       1.89805516       0.00172439      -0.00011273      -0.01794937
Pt       2.30485238       0.81344175      11.39500615       0.00440504      -0.00164639       0.01506704
Gd       2.29911502       3.36140030       0.38509126       0.00491995      -0.00373795      -0.00024188
Pt       2.30105685       3.36196696       9.77995457      -0.00124281       0.00070960      -0.00445294
Pt       0.09678438       2.08326229       8.16321674      -0.00436390       0.00050616      -0.03093874
8
Lattice="4.26105886766008 -0.000670789545609939 -0.0017593904610825795 -2.1310548819231485 6.483683011384768 -0.006134947834407905 0.004013773552532787 0.009187191592141522 9.625250605229832" Properties=species:S:1:pos:R:3:forces:R:3 sample_seed=87029 sample_index_within_seed=0 benchmark_method=GBSA-TCL dft_verified=F structure_index=0 total_energy=-78.59333038330078 stress="0.010664575733244419 -0.00021961890161037445 9.943627082975581e-05 -0.00021947357163298875 0.0008058333187364042 -0.0004084922547917813 9.941255120793357e-05 -0.0004084233078174293 0.01573101058602333" pbc="T T T"
Eu       0.79450052       3.82338053       0.59353592      -0.00195254      -0.01888202       0.01040182
Eu       0.79339323       0.28494880       2.37582067       0.00045018       0.03983238       0.00026289
Eu       2.92662017       1.16509733       8.96498934      -0.00007415       0.01986428      -0.00894415
Eu       2.92358520       1.16092704       5.40904654       0.00129981       0.02005765       0.00818110
Eu       0.79387269       3.82587910       4.15113208       0.00032627      -0.01804391      -0.00979750
Eu      -1.33545088       4.70512005       7.18573124      -0.00010753      -0.04118887      -0.00122953
Pt       2.92479214       2.44579295       2.37233666      -0.00102922      -0.02853997       0.00044888
Pt       0.79436640       2.54368669       7.18578167       0.00108717       0.02690040       0.00067649
4
Lattice="4.585758949859258 -0.22813868241379795 -0.6663328832032105 -2.21799104679448 4.0488044022014025 -0.4993450670190819 -0.8276446972974653 0.9419679810656402 4.876004449209149" Properties=species:S:1:pos:R:3:forces:R:3 sample_seed=87030 sample_index_within_seed=0 benchmark_method=GBSA-TCL dft_verified=F structure_index=0 total_energy=-17.748672485351562 stress="0.04997486621141434 0.0023873774334788322 0.044465571641922 0.002387323882430792 -0.007472543977200985 -0.06981432437896729 0.04446558654308319 -0.06981418281793594 0.023617494851350784" pbc="T T T"
Pt      -1.66420026       3.98792263       0.17974907      -0.01062581       0.00211514      -0.03384227
Hg       0.21092695       4.34008536       2.27151373       0.02672477       0.00822401       0.01915652
Pt       0.59798507       2.54053628       0.08329831       0.00164994       0.00695498      -0.00350415
Pt       2.87520726       1.15290628       0.07425261      -0.01774889      -0.01729410       0.01818990
11
Lattice="3.686102443766003 0.0028776013661036756 -0.6972372996375282 -0.2978966033871265 5.314362905339946 -1.5506799141290668 0.009337284084021825 0.03132763775577979 10.144813815299408" Properties=species:S:1:pos:R:3:forces:R:3 sample_seed=87031 sample_index_within_seed=0 benchmark_method=GBSA-TCL dft_verified=F structure_index=0 total_energy=-134.01620483398438 stress="0.00774814747273922 -0.00017221087182406336 -0.0004359753511380404 -0.0001710787764750421 0.006649687420576811 -0.0009126247023232281 -0.00043662768439389765 -0.0009155510924756527 0.005858368705958128" pbc="T T T"
Gd       0.46007103       3.21549416       0.77664215       0.00118902       0.00157459       0.00656971
Gd       1.85755681       5.14176708       8.17388864      -0.00100079       0.01324946      -0.00188089
Gd       1.15513387       4.19513259       4.46075786       0.00378423      -0.02336287       0.01698869
Gd       2.83633435       1.14919934       3.24526879       0.00260722      -0.00029042       0.00752053
Gd       3.54696539       1.75843420       6.99772181       0.00034182       0.00442931       0.00368863
O        1.74792987       0.50594971       7.57366092      -0.00172457       0.00141130      -0.00492284
O        0.05135544       3.74029639       8.71177634      -0.00023048       0.00909668       0.00079076
O        0.86630078       2.32917699       2.92868303       0.00062046       0.00122558      -0.00293566
O        3.18473181      -0.05087435       5.07814039      -0.00186098      -0.03913559      -0.01252534
O        0.28893857       1.21821535      -0.14080021      -0.00058357       0.02157399       0.00147538
O        2.29600033       4.60269264       0.39611144      -0.00314246       0.01022765      -0.01476873
