11
Lattice="5.776193618774414 0.0 -2.027097702026367 -2.959241347453428 5.024182524241435 -1.933769941329956 0.0 0.0 6.1323747634887695" Properties=species:S:1:pos:R:3 pbc="T T T"
Mn      -0.28815382       1.84382698       1.95047655
F       -0.27868173       3.78382789       1.94482335
F        1.63261552       2.00422420       3.13138234
Eu       1.86145679       0.51490336       5.04986061
Mn       3.33121437       3.14115229       2.98638294
F        0.83123248       1.89999548       0.37887821
F        2.80602544       4.14725882       1.42831528
F        3.75156043       2.00045773      -1.50798427
F       -0.79139071       4.13122750      -1.13870426
F        4.36718224       1.80127496       1.50344384
F        2.53441016       4.91776711      -2.02389592
