9
Lattice="4.110104665187141 0.002454073039234827 -0.000362865610182266 2.052066223005341 4.191304599943313 1.0091016729664444 0.0006007365876011595 -0.004465986617389845 6.265431621309376" Properties=species:S:1:pos:R:3:forces:R:3 structure_index=0 total_energy=-69.74104309082031 stress="-0.014274858869612217 -6.686873530270532e-05 -0.000803204660769552 -6.7163236963097e-05 -0.039110053330659866 -0.005093798507004976 -0.0008036913350224495 -0.005093565676361322 -0.010142046958208084" pbc="T T T"
Si       2.90921711       2.94488387       5.58098918       0.00166830       0.04339796       0.00591013
Fe       0.85552313       1.52515360       5.15782733      -0.00018505      -0.02273764      -0.03903595
Fe       2.90849903       3.78653191       1.55392155       0.00808132       0.02387261       0.01575439
Fe       2.91037001       2.09235987       3.34442110       0.00217716      -0.03336532      -0.00898583
Fe       4.96604518       2.53323364       1.22478510      -0.00870291      -0.02597500      -0.02617852
Si       4.96507276       3.36872407       3.46183990      -0.00217609      -0.03399208      -0.00627433
Fe       2.91165436       0.03176718       4.68850503      -0.00118713       0.03024672       0.01291981
Fe       0.85665594       0.59666055       2.87519861       0.00032409       0.01939704       0.04485493
Pt       2.91122189       1.06414840       0.88404919       0.00000032      -0.00084424       0.00103543
