9
Lattice="4.893183236123867 -2.601656758299674e-05 -0.0003577645612472938 2.5876409834188655e-05 4.894132197743561 -0.0015141124736661904 0.0014055841293081912 -0.0005215110269530314 13.08105402479187" Properties=species:S:1:pos:R:3:forces:R:3 structure_index=0 total_energy=-59.88605499267578 stress="0.02010742574930191 -4.301068656786811e-06 -3.6168617043585982e-06 -4.2267624849046115e-06 0.020042389631271362 -1.8916176486527547e-05 -3.4809611406672047e-06 -1.8679444110603072e-05 0.022089041769504547" pbc="T T T"
K        3.36359212       4.60237061       0.15908972      -0.00001282       0.00049714      -0.01606596
Eu       0.91716866       4.60361160       3.75429840       0.00014256       0.00055124      -0.00387345
O        3.36385064       4.60391218       4.19504834      -0.00005659      -0.00011189       0.03902509
Sb       0.91743549       2.15777222       6.09071229      -0.00014421      -0.00082330       0.02591214
Eu       3.36408624       4.60473706       6.63328599      -0.00010674       0.00001650       0.00608189
K        0.91860098       2.15777383      10.25969485       0.00059083       0.00012710       0.03554978
Sb       0.91700551       2.15604436       1.70631829       0.00003355      -0.00025966      -0.03551401
Sb       3.36570565       4.60514097       9.69445538      -0.00062082      -0.00056312      -0.04669919
Eu       3.36372416       2.15652568       3.75554079       0.00017427       0.00056601      -0.00441636
