5
Lattice="3.7115622101638124 1.251213915096173 0.003335087996919853 2.1171902453704377 5.962997250452175 -0.12448169144746045 -0.005285160566461964 0.05787020334915496 7.850371151184826" Properties=species:S:1:pos:R:3:forces:R:3 structure_index=0 total_energy=-53.4821891784668 stress="0.0007222216227091849 -0.010612704791128635 0.0035543704871088266 -0.010612593032419682 0.003256505122408271 -0.0010199154494330287 0.0035547646693885326 -0.0010197359370067716 0.004763834644109011" pbc="T T T"
Gd       0.57961685       0.92241345       2.11932117       0.01872893      -0.03126212      -0.00463821
Gd       0.61770676       0.87920219       6.11044627       0.00006022       0.00402239       0.01194368
Co       2.46092663       1.50210257       0.19086183      -0.01897245       0.00616552       0.00369591
Br       3.55827024       4.44217180       4.09183045      -0.01716912       0.03944227      -0.01653276
Gd       1.65078310       3.85679403       0.12732263       0.01735249      -0.01836805       0.00553140
