11
Lattice="4.392058849334717 0.0 -0.01556454785168171 -0.007050419962730218 4.45948758691795 -0.010026964358985424 0.0 0.0 17.83173179626465" Properties=species:S:1:pos:R:3 pbc="T T T"
Te       4.05995400       1.26482884       3.18351840
Pr       4.04563412       3.49896774       5.51889721
Te       4.05258874       3.48937214      -0.00046708
Te       4.04910258       1.27381894      12.15409723
Ce       1.86028698       1.26296554       0.86367048
Te       1.86235433       1.27032292      15.43179084
Pr       1.85346724       1.27045064       9.80897662
Te       4.04437146       3.49833884       8.85638648
Te       1.85198930       1.27245123       6.46796636
Pr       4.05267602       3.49924019      14.48080216
Cl       1.85177705       3.50125181      12.16569139
