6
Lattice="2.835676431655884 0.0 0.0008179304422810674 0.0005771638299991355 3.8205244105209624 -1.2647595405578613 0.0 0.0 6.38875675201416" Properties=species:S:1:pos:R:3 pbc="T T T"
Fe       0.78493748       1.80742078       1.01514133
Fe       2.20379265       2.44100744       2.92432299
Fe       0.78590931       3.08210035       4.86239812
Fe       2.20326811       1.16398234       5.46588555
Co       2.20341218       3.71309543       0.36660837
Co       0.78541301       0.53419293       3.56569825
