8
Lattice="4.603460350537415 -0.0006035722330340562 -0.00040354097370580406 0.0006427865952009421 4.650130043916693 0.00169101994418417 0.0003777575975589391 -0.0015742284253333198 4.604622385494932" Properties=species:S:1:pos:R:3:forces:R:3 structure_index=0 total_energy=-56.7400016784668 stress="-0.0671989843249321 0.00044245185563340783 -0.00023736146977171302 0.0004419152101036161 0.028764188289642334 0.0012065524933859706 -0.00023823189258109778 0.0012059947475790977 -0.03454034775495529" pbc="T T T"
Eu       1.77383538       3.72184347       3.47291884       0.00521554      -0.00060048       0.00120519
Fe       4.07524585       1.39714543       3.47248378       0.00007851       0.00206923       0.00181826
Na       4.07517493       3.72204012       1.17115448      -0.00011542       0.00151917      -0.00249124
O        1.77351725       3.72541084       1.17064558       0.00026606       0.00687248       0.00054934
O        1.77095347       1.39714362       3.47280849       0.00872308      -0.00379323      -0.00295939
Fe       1.77154908       1.39498405       1.16932948      -0.00140850      -0.00131098       0.00214642
O        4.07579857       1.39766062       1.16889771      -0.00229528      -0.00421686       0.00157445
O        4.07634938       3.72030546       3.47328721      -0.01046393      -0.00053928      -0.00184283
