11
Lattice="5.282282829284668 0.0 -2.5789811611175537 -1.3711898516804133 5.198931541155632 -2.45870304107666 0.0 0.0 6.4422712326049805" Properties=species:S:1:pos:R:3 pbc="T T T"
O        1.79389926       0.49778987       4.37034883
O        3.30587979       2.88047474       1.28473024
O        0.69928392       2.74552915       2.47323945
Sr       0.30728621       2.47813448      -1.37821274
Eu       2.20810179       0.91029940       2.03007491
Eu       3.99376451       4.00748877      -0.68007290
O       -0.78357746       4.44135708      -0.31710497
O        4.28315810       0.47474654       2.98471685
Eu       2.46320319       4.76061246      -3.91768672
O        1.88937894       4.40334133      -1.74164574
O        0.08938509       2.01995176       1.31764486
