11
Lattice="5.1078338623046875 0.0 -2.189263105392456 -0.932370809543422 5.017937402650461 -2.1837873458862305 0.0 0.0 7.068899631500244" Properties=species:S:1:pos:R:3 pbc="T T T"
Eu       4.87883431       0.53738428      -1.57353707
F        3.99639050       2.45867318      -0.20639832
Gd       3.36976473       1.79183730       1.95682293
Gd       0.35180225       4.30397519       1.95761666
F        0.20582719       1.05832275       5.25064319
F        1.37188602       2.45928228       0.91862599
F        2.34830971       3.63322823       3.00096810
F        4.44587332       0.01769744       0.85525629
F        1.82377045       0.01796349       1.97795190
F        2.83225633       1.05949257       4.12186221
F       -0.27269276       3.63694745       4.12493645
