3
Lattice="2.670043489856662 0.08179268327267146 -0.6646813611939473 0.08565288698853656 2.6902561396195237 0.5768444367799883 0.12201606641148016 0.0646035432568679 6.175614274515748" Properties=species:S:1:pos:R:3:forces:R:3 structure_index=0 total_energy=-17.21393585205078 stress="-0.0002491435734555125 0.1603517234325409 0.058129921555519104 0.16035178303718567 -0.018338602036237717 -0.027212653309106827 0.05812953785061836 -0.027212893590331078 -0.011510659009218216" pbc="T T T"
Al       0.51217699       1.90118295       4.30613778       0.00704878      -0.00020832       0.01200075
Cr       2.23149336       0.22695929       5.35097708      -0.00112876       0.00098159      -0.00148271
Al       1.24397951       1.09696036       1.46139175      -0.00592001      -0.00077327      -0.01051802
