9
Lattice="4.111852976082161 0.0025675212325329045 -0.00045773482652565787 2.0530297907384125 4.188137483537571 1.0086889785713757 0.00045665482179387456 -0.005581485800408052 6.267772568666663" Properties=species:S:1:pos:R:3:forces:R:3 structure_index=0 total_energy=-69.74131774902344 stress="-0.007514850236475468 0.00029367278330028057 -0.0008408367866650224 0.000293585704639554 -0.040291134268045425 -0.007380200084298849 -0.0008409730507992208 -0.007380056660622358 -0.00413950951769948" pbc="T T T"
Si       2.91043066       2.94322672       5.58142416       0.00071302       0.03686082       0.01503313
Fe       0.85572543       1.52332465       5.15914694       0.00023237      -0.02421595      -0.03571007
Fe       2.91006388       3.78414089       1.55593330       0.00554361       0.01546999       0.00359906
Fe       2.91175903       2.08885399       3.34393034       0.00098893      -0.02714331      -0.00353272
Fe       4.96800342       2.53077430       1.22216740      -0.00636477      -0.01772369      -0.01133783
Si       4.96711772       3.36458129       3.46355016      -0.00102638      -0.02835298      -0.01649576
Fe       2.91261370       0.03241991       4.69168481      -0.00018089       0.02429408       0.00592887
Fe       0.85702853       0.59541988       2.87668385      -0.00009030       0.02161380       0.04019871
Pt       2.91248436       1.06328439       0.88398254       0.00018440      -0.00080273       0.00231655
