6
Lattice="4.301296710968018 0.0 0.746256411075592 2.0949029282755727 3.7644413755229267 0.741793155670166 0.0 0.0 12.803647994995117" Properties=species:S:1:pos:R:3 pbc="T T T"
Eu       0.74209534       1.17701899       1.02626380
Ga       2.50737837       2.21769032       3.63761723
I        3.24446443       0.11094601      12.14561725
Eu       4.28364527       0.73423691       6.16180526
Ga       4.61646169       3.45936579       4.28062103
I        1.78302006       1.80081134       7.84660115
