4
Lattice="3.089471090364716 0.010887525912511173 -0.006796290318043453 1.5351174314647336 2.5203242908491 0.8778886975551687 0.006285495342767768 0.00438000539423656 5.293210316551123" Properties=species:S:1:pos:R:3:forces:R:3 structure_index=0 total_energy=-22.520200729370117 stress="0.06445717066526413 -0.027270425111055374 -0.029515648260712624 -0.02726968564093113 -0.0995742455124855 -0.025672495365142822 -0.029519150033593178 -0.025674542412161827 0.12717358767986298" pbc="T T T"
Li       1.55018631       2.50497953       1.34977080       0.00301570      -0.00551476       0.03913417
O        3.10479014       1.30886100       2.11625903      -0.00173051      -0.00141681      -0.01715593
F        1.55128253       1.31305002       4.74967913       0.00445949       0.00918857      -0.01992756
Fe       1.56309805       0.11914674       2.80589193      -0.00574463      -0.00225700      -0.00205046
