12
Lattice="4.494975566864014 0.0 1.351271629333496 2.05117267827471 3.9998820476473154 1.3508245944976807 0.0 0.0 8.156967163085938" Properties=species:S:1:pos:R:3 pbc="T T T"
Fe       2.31830542       2.35966209       3.49038086
Mn       4.47759681       0.93394178       4.46576134
Mn       4.65405525       3.78634350       3.88239220
Fe       1.74754049       2.01065214       1.25930871
Fe       0.73619936       0.04480267       0.59286604
Fe       4.02913668       2.00938570       1.94347700
Mo       3.53904566       0.36006334       7.57222426
Fe       5.10427076       2.71196164       6.39383982
Fe       1.85004119       0.67838451       5.04304155
Fe       2.89254898       2.71199764       5.73160256
Fe       1.23120508       1.69745804       7.09285932
Fe       3.40470686       3.02284720       8.04430716
