12
Lattice="5.2797465324401855 0.0 -1.9043446779251099 -2.9038691225588313 4.566799092911268 -1.5353503227233887 0.0 0.0 5.64378547668457" Properties=species:S:1:pos:R:3 pbc="T T T"
O        0.35695016       1.51583195       0.70630093
Fe       1.37987848       1.81350628      -0.89921426
F        2.66519109       2.11810026       3.04111776
Cr      -0.54471371       2.81589257       1.87211924
O       -0.89502941       4.10124065       0.40085879
Cr      -2.46117131       4.16064883      -0.68231594
O       -0.10713370       1.79605347       3.53450597
Fe       3.49931202       0.77600662       1.69814294
O        3.06259306       1.81951161       0.10515777
F        1.56163524       3.86173408      -1.03740676
F       -1.41258482       4.29521183       3.21442232
F        1.14274889       4.08002274       1.86009075
