14
Lattice="3.1173262581402637 -0.23644280912137228 0.4108662236509052 -0.5852243078948893 5.014358815546928 -1.6373581083035371 1.3473304900814056 -0.03382590532986032 10.669057194907262" Properties=species:S:1:pos:R:3:forces:R:3 structure_index=0 total_energy=-102.46421813964844 stress="0.0012299291556701064 0.0013169866288080812 -0.0015904351603239775 0.0013159523950889707 0.001096117659471929 0.000396084418753162 -0.0015894238604232669 0.0003953734994865954 -0.0020845953840762377" pbc="T T T"
O        2.65999082       1.39564880       7.47222202       0.00464337       0.00205767      -0.00422901
Mn       2.85563024       2.85238104       8.77205395      -0.03977008      -0.01543836       0.02069657
O        0.77638344       1.49000819       1.87869350      -0.00701475      -0.00316715       0.00295550
Mn       0.59846040       3.03031952       3.24694449      -0.00842588      -0.00569981       0.00216839
Mn       2.90576496       0.51141858       5.72670300       0.01747549       0.00417143      -0.00595307
O        3.70472704       1.50392894       9.97114527       0.03070894       0.03552556      -0.02812417
O        1.69392981       4.20897898       7.73269966       0.01921803       0.00011607       0.00361806
O        0.43300028       4.55355397       4.55857064       0.00370693      -0.00254622       0.00143100
Mn       0.79020141       0.60459840       0.12546112       0.01032464       0.01638117       0.00295316
O        1.91101710       1.64666498       4.36387011      -0.02880710      -0.01617885       0.01373594
Mn       1.96997496       0.29518737       2.87866368      -0.01990928      -0.01991031       0.00713629
Mg       4.02652485       0.10995893       8.43138626       0.00743367       0.00926406      -0.00428784
O        1.71245737       4.36651824      -0.49331389      -0.00436795       0.00093691      -0.00166970
O        2.42877693       4.21004755       2.52443055       0.01478422      -0.00551191      -0.01043084
