11
Lattice="4.2141313552856445 0.0 -1.110745906829834 -0.9533379487319136 6.917039004196302 -3.600031614303589 0.0 0.0 8.604576110839844" Properties=species:S:1:pos:R:3 pbc="T T T"
Eu       1.85823699       6.57880357      -1.04293140
Mg       0.99792900       6.48604339       4.27632504
Mg       1.36689158       3.79999180       5.66987776
Eu       3.58511968       1.30439763       5.52595677
Mg       0.23063815       1.40068937       1.31470895
Eu       2.72038682       3.93902592       2.23829717
Cu       1.98610970       2.38614344      -0.57386687
Cu       0.93198895       1.64105576       3.99297124
Cu       0.29734672       6.23841147       1.59747610
Mg      -0.13670800       4.08417055      -0.07827332
Cu      -0.75721204       5.49777422      -2.44403542
