8
Lattice="4.384860515594482 0.0 -0.006003066897392273 -0.0008894847380054315 5.363720820106669 0.006658536847680807 0.0 0.0 6.490501880645752" Properties=species:S:1:pos:R:3 pbc="T T T"
Gd       0.01142680       4.54077097       1.56863422
Pt       2.20486440       0.52145340       6.05445902
Pt       2.20415743       3.20069949       6.05871311
Pt       2.20399566       1.84999389       2.10596715
Pt       2.20475994       4.54299610       3.52539508
Pt       0.01110522       4.54302264       5.12106427
Gd       0.01276302       1.86383446       4.07087825
Pt       0.01147540       1.86152844       0.51840431
