12
Lattice="4.679178237915039 0.0 -1.4075593948364258 -2.132145028274579 4.161138965440243 -1.4232314825057983 0.0 0.0 5.619356632232666" Properties=species:S:1:pos:R:3 pbc="T T T"
C        1.89002464       2.27313197       0.20790718
Mn      -1.02087467       3.03131313       4.32493402
Fe      -1.85623436       3.92868095       2.06015840
C        0.61905038       0.17891743       1.60671435
Mn       0.31272935       3.62596564       0.77083412
Mn       1.47309757       3.29033419      -1.46993965
Mn       0.21164730       1.22535048      -0.05547684
Mn       2.38864418       0.94960119       4.33118016
C        0.06298931       3.13286351       2.65042944
C        3.48695937       1.06868700       2.66397091
Fe       1.55160980       1.82879331       2.07030482
Fe       3.69212306       1.54885348       0.77586204
