15
Lattice="5.9450559758881765 -0.017881817507959818 2.4106214394287653 -0.14448840505214167 5.813447510743201 2.1582248757545814 0.02290926847358306 0.003538777862801335 6.88508280895825" Properties=species:S:1:pos:R:3:forces:R:3 structure_index=0 total_energy=-107.12289428710938 stress="-0.015123888850212097 -0.002027032896876335 -0.0029028712306171656 -0.002026906004175544 -0.020378297194838524 0.0036712836008518934 -0.002902484033256769 0.003671886632218957 -0.011442085728049278" pbc="T T T"
Mn       0.12255072       2.59955684       1.76970421      -0.00346574       0.01277360      -0.01527195
Mn       3.24572227       1.78805137       4.20417476       0.03768773      -0.01865518       0.00937995
Pt       5.15414661       5.75882567       6.54846677       0.00916852       0.01368831      -0.02394003
Mn       4.25536351       3.14381294       6.79811760      -0.01917677       0.02970195      -0.00388251
Pt       2.03942469       0.74617426       2.05374124      -0.03149319      -0.01815811       0.00351620
Mn       1.20742055       3.92890846       4.33702106      -0.01232304      -0.03521525      -0.01539782
Mn       0.77327353       5.47056958       8.80718033       0.00406073      -0.00769147       0.00962079
Pt       1.64813187       2.26513307       6.39457910      -0.00137444       0.00410715       0.00348234
Pt       4.85034482       1.51996091       8.91880441       0.03664050      -0.00734766       0.00634203
Mn       0.44992844       1.07020258       4.21831231       0.00530274       0.03267267       0.01349661
Au       3.69536337       0.38218671       6.64133705      -0.01359934      -0.02332859       0.00888966
Pt       2.64508853       3.45169758       8.95380885       0.00291535      -0.01061268      -0.00523987
Pt       2.29677929       5.03511293       6.56784608      -0.02552180      -0.00499350      -0.00169647
Pt       5.58439849       4.21000643       8.90981483       0.02471612       0.00153575       0.00428095
Au       4.00608161       4.43753553       4.34986576      -0.01353735       0.03152300       0.00641991
