8
Lattice="4.450401782989502 0.0 0.01197228766977787 -2.16913185156723 5.612250071829446 0.0053828079253435135 0.0 0.0 6.86595344543457" Properties=species:S:1:pos:R:3 pbc="T T T"
Eu       2.40369423       1.83200709       4.82358501
Eu       2.42732179       3.76924727       1.38131730
Zn       2.39130697       0.53873077       1.37022159
Ge       0.17353896       1.45580602       2.72773360
Ge       0.17978441       1.44260919       0.03835502
Zn       2.44181195       5.05084262       4.82456896
Ge       0.20747178       4.13118440       3.49085500
Ge       0.20271916       4.13989253       6.13143809
