11
Lattice="4.008657932281494 0.0 0.0011658258736133575 0.0043427846927449314 6.998313986868589 -1.164166808128357 0.0 0.0 7.442932605743408" Properties=species:S:1:pos:R:3 pbc="T T T"
Eu       1.27160556       1.81104573       6.51116676
Eu       1.27542333       6.83559461       1.64606300
Mn       3.27897979       6.45491809      -0.88442837
Mn       3.27783618       4.16667937       5.30038252
Mn       1.27633365       5.78282033       4.98824010
Ge       3.27495624       1.80055663       1.42344748
Eu       1.26824375       3.78329822       2.77045859
Ge       3.27479222       1.81655015       4.15870953
Mn       3.27122920       4.19057223       0.30440415
Mn       1.27103442       4.83516078      -0.57030657
Mn       3.27862890       6.42921744       4.11004803
