9
Lattice="4.127202987670898 0.0 -0.0007598298834636807 2.05800374670457 4.190884228232044 1.0153495073318481 0.0 0.0 6.286901473999023" Properties=species:S:1:pos:R:3 pbc="T T T"
Si       2.91923803       2.96820694       5.57330197
Fe       0.85769427       1.54170521       5.17072926
Fe       2.92120887       3.79735335       1.53761811
Fe       2.92214880       2.04837102       3.31469810
Fe       4.98213220       2.51777349       1.24870817
Si       4.98270486       3.35256005       3.50375962
Fe       2.92246268       0.07671767       4.74927771
Fe       0.85937157       0.58365486       2.89477783
Pt       2.92278200       1.06235774       0.88753119
