16
Lattice="3.2433059215545654 0.0 0.5530439615249634 1.856751083864011 6.455995094999218 -0.9979274868965149 0.0 0.0 9.944918632507324" Properties=species:S:1:pos:R:3 pbc="T T T"
Li       2.87363744       3.59913995       3.31641539
Li       1.58385232       1.00629830       1.02640393
Mn       2.12586405       5.50482881       7.84144663
O        3.71190296       4.26241381       8.34868421
B        1.05430246       1.68465247       4.19573076
Mn       4.78164455       5.78966278       1.95457051
O        1.77629708       2.55047023      -0.05896039
Li       2.32844348       0.25552852       6.49769658
O        3.15665622       4.48665565       1.67485942
Mn       4.03441005       3.67298062       6.37378519
O        3.25018807       0.02979819       1.04440249
Mn       3.41189067       3.31641395       0.13549729
O        1.21777144       0.68306094       3.24236035
O        1.12148665       3.00905720       3.81325713
O        0.82026330       1.41968283       5.56936412
O        2.43582787       5.13402696       5.97269524
