4
Lattice="4.067429824841925 -0.029256825502622496 0.0025345567042949118 0.029135132811204747 4.067407315511228 0.004915963932694609 -0.012561692620525103 -0.01175707492265992 5.899513181797565" Properties=species:S:1:pos:R:3:forces:R:3 structure_index=0 total_energy=-15.492359161376953 stress="0.05440952256321907 -0.002625074004754424 0.000885204179212451 -0.0026247769128531218 0.054867684841156006 0.00023778922331985086 0.0008853708277456462 0.0002378836361458525 -0.07946480810642242" pbc="T T T"
Se       3.53395352       0.76524626       0.26432020       0.00024464       0.00038686       0.00363523
Sb       3.52061025       0.75568286       3.61010907      -0.00265847      -0.00173176       0.01872665
Se       1.51233484       2.81056227       3.26917045       0.00211128       0.00093257      -0.01264956
Li       1.51402826       2.81292968       0.37788955       0.00030255       0.00041231      -0.00971235
