15
Lattice="5.267763137817383 0.0 0.012473714537918568 -0.009025362867954606 6.178613746578499 -2.139373779296875 0.0 0.0 7.610441207885742" Properties=species:S:1:pos:R:3 pbc="T T T"
Mn       3.17925477       4.50024625       3.98536577
Mn       0.55668537       1.52427858       6.49373474
O        4.57834427       4.25001433       2.45674013
Eu       0.56096913       1.80834946       2.67169672
P        0.55096593       5.09966129       2.03298166
O        3.18807331       5.88127773       5.58147568
P        3.19323706       1.04797802       0.82816904
O        4.45285365       1.89313168       0.43447384
O        0.55971169       0.32030909       4.85551982
O        3.19215031       2.77232196       5.29137742
O        0.55515787       5.27423536       0.47430545
O        3.19537563       0.82505031       2.34896598
O        1.79078912       4.24949285       2.44885023
O        1.93230911       1.88854795       0.43029241
Eu       3.19109242       4.31870812       0.14055503
