12
Lattice="5.430056571960449 0.0 -0.0023901178501546383 -0.0013167780505017124 7.591270809410671 0.09539908915758133 0.0 0.0 10.102180480957031" Properties=species:S:1:pos:R:3 pbc="T T T"
Eu       3.49085324       6.31024033       5.37901443
Eu       3.48990412       5.24203464       9.14775590
Eu       3.48919370       2.61477769       6.26370659
Eu       0.77593036       0.29709955       7.70412905
Tl       3.48936967       4.80404562       2.40766636
Eu       3.48926146       1.51323578       2.64106042
Tl       0.77776472       4.49093926       7.21018352
Eu       0.77544238       6.70866176       1.49881922
Eu       0.77556378       2.96695550       0.38679754
Mg       0.77589115       3.98761964       4.04907200
Tl       0.77492648       0.85532243       4.44230486
Tl       3.48896570       1.04827327       9.47483122
