14
Lattice="3.6355137825012207 0.0 -0.005461272317916155 1.812476173927649 6.8802445519995805 -0.052977193146944046 0.0 0.0 9.548674583435059" Properties=species:S:1:pos:R:3 pbc="T T T"
Gd       0.66155745       2.47555020       9.48087384
O        2.47634703       6.19819296       6.30684422
Eu       2.47402397       5.68336110       1.88803924
Eu       2.47649659       0.10261707       4.75545936
O        0.66415361       0.16397358       0.05264193
O        2.47932695       2.73710563       4.76168986
Gd       4.29345653       2.89579683       3.37171665
O        2.47872998       2.10776020       8.15007075
Eu       4.29342727       6.63428379       8.07358546
O        2.47639984       3.12997865       1.53138317
O        4.28987988       5.15319089       3.18036855
O        4.29675991       4.24816434       7.98115777
O        0.66001620       0.66201571       3.39943317
Gd       2.47656790       3.86296173       6.69709000
