11
Lattice="5.832391885881443 0.07393753304132536 -0.24195437491326183 2.275258693076781 7.555180713686912 1.4945751202492508 -0.17534795810326395 0.32582356247234984 5.6515391969287085" Properties=species:S:1:pos:R:3:forces:R:3 structure_index=0 total_energy=-33.519596099853516 stress="-0.00540828425437212 0.0011641180608421564 0.0038472176529467106 0.0011643108446151018 0.0031217581126838923 -0.002410044427961111 0.0038470784202218056 -0.002410193206742406 -0.0026744839269667864" pbc="T T T"
Zn       1.27124002       4.28614049       3.69930566       0.02625427       0.00679660      -0.03900126
Dy       2.22468658       7.02683849       1.74944906       0.01253938      -0.01807231       0.03091633
Zn       6.38922843       6.69725747       4.31903380      -0.00011168      -0.01994454       0.02151713
Dy       5.45441305       1.90924035       2.38114587      -0.00971849       0.00059457      -0.00239504
Zn       3.26393406       6.61321415       4.65297115      -0.02635457      -0.00647232       0.03901120
Dy       2.48581257       3.54679443       0.95133857      -0.01251330       0.01799375      -0.03107325
Zn       3.97835237       4.27607026       3.79127806       0.00013126       0.02011236      -0.02157641
Dy       5.27145463       5.32374177       1.22933474       0.00002575       0.00008247       0.00012326
Zn       5.57629461       2.86485222       5.20932900       0.00971177       0.00008456      -0.01488089
Dy       2.63788391       1.50906000       4.23455469       0.00972596      -0.00110632       0.00251842
Zn       2.51602412       0.55331497       1.40639431      -0.00969034      -0.00006888       0.01484054
