16
Lattice="2.917059571637734 -0.0015750806076285002 0.5143265050124751 1.0706743474100073 7.239914611916279 2.423019250613985 0.006694679873473765 0.06969684154298877 8.466552313105298" Properties=species:S:1:pos:R:3:forces:R:3 structure_index=0 total_energy=-103.17393493652344 stress="-0.037044983357191086 -0.001315769157372415 -0.0015480665024369955 -0.0013140080263838172 -0.03158397227525711 0.008647775277495384 -0.001550175016745925 0.008647025562822819 -0.02791854366660118" pbc="T T T"
Fe       2.25814911       2.66316184       3.27823159      -0.00178964       0.00592327       0.00571878
Mn       2.43495536       7.33557813      10.74442264      -0.00306169       0.02650374       0.01207131
Fe       0.40269486       1.17551885       5.26609361      -0.00264173      -0.03511330       0.01278416
H        1.05519476       4.85468532       1.56833106       0.00206286       0.03685111      -0.00629982
O        1.16109950       5.77227824       9.47079812       0.00474364       0.02573160      -0.01602501
O        2.93450872       4.00980624       7.93136521       0.00246286      -0.00027826      -0.01297948
H        2.94936821       3.02224338       7.84823702       0.00336555      -0.00238709      -0.01958046
Fe       1.48457829       5.25480854       7.62887397       0.00200767      -0.00510627      -0.00752358
O        0.79223507       0.95496504       3.06025921       0.00001718      -0.01514807       0.00207853
O        2.97719930       1.14728796       7.70710461      -0.00395813       0.02393724       0.01845279
Mn       3.33970316       6.80353485       5.63428513       0.00124816      -0.00147782      -0.00736299
O        2.99357263       6.85747221       7.59712735       0.00104319      -0.01295283      -0.00306329
O        1.84500559       5.61068180       5.57928956       0.00197738      -0.00872466      -0.01317775
O        1.92292167       2.38785057       5.17725512      -0.00343210      -0.03286202       0.01951117
O        3.66854844       6.85134132       3.76917585      -0.00099573      -0.00240029       0.00089005
O        0.90946925       3.57807363       2.40093329      -0.00304957      -0.00249597       0.01450606
