14
Lattice="3.195591449737549 0.0 0.006170783191919327 0.000638208035022172 5.15154548506442 -1.6165485382080078 0.0 0.0 10.639361381530762" Properties=species:S:1:pos:R:3 pbc="T T T"
O        2.24343362       1.81550875       6.98143563
Mn       2.24305921       3.10132126       8.48802797
O        0.64669719       1.60171914       1.71049982
Mn       0.64222141       3.26814389       3.20770079
Mn       2.24213217       0.72586881       5.48112386
O        2.24332043       1.46148971       9.68994856
O        0.64899084       4.38289763       7.66395119
O        0.64656634       4.83003171       4.71165636
Mn       0.64588727       0.61589623       0.00649578
O        2.23926871       2.00583712       3.92846757
Mn       2.23938261       0.62051957       2.53440817
Mg       2.24594751       0.02011294       8.02948583
O        2.24370270       4.69018519      -0.70920195
O        2.24041011       4.50490389       2.42875115
