10
Lattice="3.8270516395568848 0.0 -0.0018880063435062766 -1.9260730824253187 6.232616158765572 -1.9194916486740112 0.0 0.0 6.256379127502441" Properties=species:S:1:pos:R:3 pbc="T T T"
N        0.35236857       2.54064551       1.13335996
C        2.26959509       0.57799986       4.34508881
Eu       0.34804348       3.04399996       4.93066663
Eu       2.26273514       4.34287835       1.83874988
Eu       2.27185709       0.58080389       1.22144588
N        2.26004481       4.85293844      -0.61694296
N        2.26530032       1.52596753       5.15400031
N        2.25847652       4.88802706       4.35821759
N        0.34290866       5.86004967       1.62334944
N        0.35250114       2.50190048       2.40002926
