11
Lattice="5.434121608734131 0.0 -3.1896376609802246 -1.8291953921327606 4.995223770955992 -3.06520414352417 0.0 0.0 6.201999187469482" Properties=species:S:1:pos:R:3 pbc="T T T"
Dy       3.80868539       0.88937494       0.55603407
Fe       1.65263988       3.00172134       1.11693399
Fe      -0.70997386       4.60687268       1.16445164
Fe      -0.71673575       2.16356309       1.13638485
Fe       1.08855488       0.89207081       2.15355689
Fe       0.47251188       3.76778265      -0.89452493
Ge       2.88862873       3.38714596      -0.96677545
Ge       0.80247039       1.36534393      -0.53028825
Ge       3.30085805       0.42328658       3.70933918
Ge       0.30010863       3.35651403       3.04871821
Ge       3.54973539       3.41538349      -3.84731832
