12
Lattice="4.658642768859863 0.0 0.0006129065877757967 -0.00026643666064189297 7.893517966542187 -0.008718534372746944 0.0 0.0 9.371625900268555" Properties=species:S:1:pos:R:3 pbc="T T T"
Eu       0.28548388       1.92267722       4.46723796
Eu       2.61099299       6.17210722       9.15039188
Eu       0.28563332       4.86024749       2.24110791
Eu       2.61458835       3.22692053       6.92882811
Eu       2.61535321       7.17156984       3.59053637
Eu       0.28603506       0.91429963       8.28064992
Pt       0.28795047       0.07149044       1.88022308
Eu       2.61581218       2.22830621       1.36908675
Eu       0.28532793       5.86880563       6.05407937
Pt       2.61428263       4.06610074       3.97043327
Pt       2.61642387       0.12344936       6.55925161
Pt       0.28596127       4.01805944       8.65198589
