16
Lattice="7.497048377990723 0.0 0.5299714803695679 0.13893031504286607 3.848701952225745 -1.1115872859954834 0.0 0.0 13.9243745803833" Properties=species:S:1:pos:R:3 pbc="T T T"
Er       5.50935814       3.05667030      10.86916871
Er       6.97421319       0.21446754       8.46576187
Yb       1.95465023       1.07338840      10.96730746
S        6.55198859       1.57869820      13.05338132
S        5.91458943       0.60919313       2.76151585
Ce       4.76895900       3.17156142       4.23106528
Ce       4.17475545       2.16246802       0.85865760
S        0.51810061       2.62442560       9.05248029
S        5.95436791       1.70345251       6.38965156
Er       0.37805662       0.05588896       0.52215046
S        1.36171881       2.39957800       1.41665245
S        4.55459823       0.69857537       9.90979420
S        1.83696781       3.57220391       5.31109084
S        3.16115631       3.52556885      12.27024665
Ce       0.72560432       1.13619103       4.12219461
S        3.31912114       0.89119914       3.55087283
