16
Lattice="7.459552393647813 -0.05154020078603969 0.5558883518111466 0.10790006743661744 3.7707522311849297 -1.1111076330210987 0.06496919539609257 -0.06938630978580401 13.686246719292646" Properties=species:S:1:pos:R:3:forces:R:3 structure_index=0 total_energy=-101.5295181274414 stress="0.008255228400230408 0.00023904789122752845 0.00043991292477585375 0.00023888249415904284 0.008320722728967667 2.877963925129734e-05 0.0004391426045913249 2.9003265808569267e-05 0.008120324462652206" pbc="T T T"
Er       5.57897919       2.89905142      10.69635476       0.01345419      -0.00057577      -0.01135968
Er       6.97502757       0.12511380       8.37084340      -0.02092464       0.00477163       0.02008497
Yb       2.02390468       0.97812390      10.78379191       0.01100601      -0.00304371      -0.00786880
S        6.67491500       1.42934433      12.77258605       0.02594181      -0.00388027       0.00042031
S        6.00590016       0.56059015       2.81120783      -0.02516273      -0.00000630      -0.00483330
Ce       4.57156354       3.08843488       4.27380401      -0.04692701       0.00671782       0.01224393
Ce       4.10025802       2.09611022       0.86748284       0.00897270       0.00266036       0.00011727
S        0.57860908       2.51232578       8.88857379       0.01413545      -0.00426414      -0.01325548
S        5.92093347       1.61581382       6.36756179      -0.02578193      -0.00117689      -0.00359487
Er       0.37982911       0.03779669       0.47843430       0.01869811       0.00718292       0.01476868
S        1.29749879       2.33823271       1.41402897      -0.01031572      -0.00185266      -0.00898337
S        4.58883385       0.60295027       9.76659275       0.01674950       0.00341842       0.00797319
S        1.79889876       3.45280273       5.23684275       0.00196271      -0.00524658      -0.01147071
S        3.14360166       3.35397172      11.99883346       0.01656128      -0.00089672      -0.00191836
Ce       0.72388069       1.08420193       4.05459664       0.00181933      -0.00534445      -0.00964867
S        3.28655551       0.79462252       3.32328004      -0.00018906       0.00153645       0.01732498
