9
Lattice="3.1645123958587646 0.0 0.7813979387283325 1.8811617804753098 6.564701978043114 -1.0293036699295044 0.0 0.0 6.880545616149902" Properties=species:S:1:pos:R:3 pbc="T T T"
Mn       3.44583994       4.89574669       0.78122439
As       2.15543140       6.06727207      -0.84210389
Mn       2.22139798       3.40067610       5.83059000
Mn       2.89663047       3.47168016       3.04689802
As       1.00196069       2.35633182       3.97750292
Mn       1.51010992       1.09280045       1.93776526
Mn       4.11754561       5.02291097       4.87750117
As       3.41200874       2.53739721       0.98460114
As       2.92838336       5.92276558       2.82320192
