20
Lattice="4.637586119645275 0.01374276685488898 1.62587742086455 2.54532727938357 6.268548259602859 0.9441775969378472 -0.06069249749064143 -0.05442115710947804 6.58277034679296" Properties=species:S:1:pos:R:3:forces:R:3 structure_index=0 total_energy=-131.9295196533203 stress="-0.003653339110314846 0.004676902666687965 -0.012251081876456738 0.004677397198975086 0.026228053495287895 0.015515686944127083 -0.012250613421201706 0.015515325590968132 0.0071301544085145" pbc="T T T"
Fe       2.12266580       0.79573216       5.17066959      -0.01055883       0.02779161       0.03205275
Fe       5.01561833       6.01415626       8.37743629       0.00041824       0.00917381      -0.00913221
Fe       3.19488580       4.46949946       2.78842050       0.01131879      -0.00341816      -0.00250605
Fe       4.57926637       3.74426527       7.44652435      -0.00257515      -0.01216637      -0.00595047
Fe       5.74475589       3.96359136       3.16513978      -0.01175391       0.03037755       0.02950614
H        1.04770189       2.20412350       5.52316805      -0.01465531      -0.01660116       0.01294706
Ni       0.69623423       1.71240946       0.60455856       0.00307162      -0.01506783      -0.01597397
Fe       3.52407299       0.13806034       3.23449884       0.00967084       0.00797715       0.01067262
Fe       1.45374857       2.90032248       3.80121162       0.00214630       0.01009602      -0.00887146
Ni       2.86138766       2.17772725       1.86417606       0.00438404      -0.02273940      -0.01584268
Fe       4.21101307       1.31483183       6.41959985       0.00867083      -0.00485972      -0.00077349
Ni       6.42335561       5.29190917       6.44175886       0.00388485      -0.02270744      -0.01763008
Fe       2.44631134       3.23776743       6.18447195       0.01285105       0.01153591       0.01171649
Fe       1.01850453       0.63140338       2.87040863      -0.00071342      -0.01647736      -0.00978479
Ni       4.25853713       4.82612673       5.18183486       0.00225592      -0.01398315      -0.01880089
Ni       2.80994036       5.54515028       7.05325186       0.00047746       0.01409511       0.02049543
H        4.66992922       5.37299144       3.51535462      -0.01474725      -0.01639471       0.01465758
H        3.21398244       6.22602056       2.04524535      -0.00261308       0.00776483      -0.02187545
Ni       3.88590841       2.44445241       4.10280693       0.00102402       0.01692529       0.02091965
H        4.22907366       3.06939403       5.68082867      -0.00255696       0.00867798      -0.02582621
