12
Lattice="4.086010976734746 -0.0002459686435555278 0.9347098816769429 1.7342425366499645 7.349462918123692 1.8184695703997686 -0.04449495114731019 0.07646762902480221 9.594301939195205" Properties=species:S:1:pos:R:3:forces:R:3 structure_index=0 total_energy=-102.28885650634766 stress="0.027114760130643845 0.0016946650575846434 0.0018012289656326175 0.0016943207010626793 0.00834902934730053 -0.007021322380751371 0.0018007460748776793 -0.007021273951977491 0.019993426278233528" pbc="T T T"
Eu       2.73376694       5.85194724       5.03595015      -0.00199702       0.00745364       0.00271711
P        1.93798577       1.50729775       8.51237270       0.00295816       0.01981940      -0.01426604
Eu       1.32645194       2.29546802       1.78362759       0.00164194       0.01343372      -0.00474232
Eu       5.50096010       6.68211592      11.72916579       0.00485550       0.01128492      -0.01317815
Eu       3.89833971       3.79085140       9.34426433      -0.00418271      -0.01054849       0.01842941
Eu       0.42888495       0.97788253       5.70961673       0.00413702      -0.01002415      -0.01481603
P        3.10174596       0.54950874       3.42458534      -0.00139914      -0.01066538       0.00343615
P        4.69347808       3.74040553       5.86542218      -0.00470588       0.01667666       0.01725440
P        3.32363466       4.52029708       2.44909395       0.00659034       0.00174916      -0.02173667
P        2.05405672       5.50619555       8.01015433      -0.00191391      -0.03223831       0.00077904
Pt       2.90240655       2.80893868       4.29114568       0.00596866      -0.00368953      -0.02047499
Pt       2.31680625       3.31996847       6.86096299      -0.01195296      -0.00325174       0.04659803
