7
Lattice="4.84447050707269 -0.017076606656129065 -1.694267978349992 -2.381641466300393 4.219676831021974 -1.6880964456394356 -0.01128339526994312 -0.02532395240323921 5.13015026772149" Properties=species:S:1:pos:R:3:forces:R:3 structure_index=0 total_energy=-67.33718872070312 stress="0.00797721091657877 0.02495754510164261 0.008451510220766068 0.024956978857517242 0.03373796492815018 0.014692159369587898 0.008450583554804325 0.014690426178276539 -0.0017672888934612274" pbc="T T T"
O       -0.76541648       2.54364667       2.17124985       0.00212317      -0.00216053      -0.00249672
Eu       2.85126342       0.44161215      -0.39479686      -0.01799512       0.00117534      -0.00476772
Eu       1.66369898       2.54069282       1.33006161       0.00285878       0.00765385       0.00209109
O        1.65904280       2.55433230      -1.23605073      -0.00344850      -0.00074101       0.00128083
Eu      -0.75190952       2.55570866      -0.38962525       0.00726135      -0.00779718      -0.00090112
O        0.43501977       0.44646265       0.45085971       0.00227102      -0.00183892      -0.00177671
O        2.84729379       0.43155165       2.17492011       0.00692943       0.00370884       0.00657058
