20
Lattice="3.565338134765625 0.0 0.491472452878952 1.2258378118716353 7.312682441606321 3.182504415512085 0.0 0.0 11.564297676086426" Properties=species:S:1:pos:R:3 pbc="T T T"
Gd       2.98034776       1.43693526       1.80629139
O        3.55990201       5.48218080       8.65447568
O        0.55295506       0.34978081       5.29947179
Eu       3.15979791       4.43266812      12.03244795
Eu       1.73739635       0.16177186       9.83760926
O        2.84462063       5.37179589       2.67310137
H        3.72917301       3.80534681       6.33086503
O        3.93315603       6.76544394       5.90389085
O        2.00958304       1.76700576       8.09552071
Eu       0.95862863       4.20595042       3.35029740
Gd       1.96868854       5.99380874       6.83785894
O        1.37377943       6.24755908      11.60356934
Eu       3.64502933       3.09006893       9.07073775
Ni       1.66755248       5.94788462       9.62152189
O        1.62513990       3.98425918      10.11082298
O        1.06243415       3.70707865       5.94870059
O        3.35513489       1.28279937      11.08608942
Gd       2.28759666       1.57972044       5.83589799
O        1.23850944       2.85709803      12.89788131
O        2.75894581       2.59622906       3.86342143
