10
Lattice="4.040398597717285 0.0 -0.5945712924003601 -0.0829642278193267 3.889514256840009 -0.5528316497802734 0.0 0.0 13.94965648651123" Properties=species:S:1:pos:R:3 pbc="T T T"
Eu       0.25380921       1.51618452       8.93530566
Cu       2.41105437       3.63653727       9.59358681
Eu       1.23153214       0.49099796       1.61054282
Eu       1.74071877       0.99248812       5.04398264
Cu       3.48318793       2.70426119       2.89468339
Cu       3.87615901       3.09017825       5.52080314
Eu       2.81606822       2.04656919      12.31667948
Cu       2.05123837       3.28141994       7.13771791
Cu       0.57235502       3.81615252      11.12415108
H        3.06965106       0.30759085       0.06311956
