17
Lattice="5.337092399597168 0.0 0.0021126901265233755 -0.0021179359554514103 5.336954650251025 -0.0006466273334808648 0.0 0.0 7.25355339050293" Properties=species:S:1:pos:R:3:forces:R:3 sample_seed=85000 sample_index_within_seed=0 benchmark_method=GBSA-TCL dft_verified=F structure_index=0 total_energy=-146.0896759033203 stress="1.7165110111236572 -0.023678962141275406 0.02374420315027237 -0.0236782468855381 1.3639841079711914 -0.0027354529593139887 0.023745138198137283 -0.0027352971956133842 0.39151430130004883" pbc="T T T"
Mn       3.88760680       2.74386812       3.36273424      -0.13625455       0.04605701      -0.04957168
Mn       2.68260090       1.39551742       5.15096984      -0.00380113      -0.00183801      -0.05280979
Mn       2.68266223       1.39647333       1.62199328      -0.00118380      -0.00642605       0.03085576
Mn       2.68120338       4.06338286       1.72557018      -0.00675946       0.00177656      -0.46615496
Pt       0.01199021       1.39460572       5.14842855       0.00479563       0.00115124       0.26363784
Mn       2.68188646       4.06316019       5.04555828      -0.00679502       0.00216447       0.33016214
Mn       1.32836213       2.68597418       7.03483695       0.14125226       0.09941448       0.04024974
Mn       1.47652516       0.04439622       3.36154808       0.13555032      -0.03885474      -0.04348661
Mn       3.89213873       0.04708750       3.36191101      -0.15344800      -0.05231381      -0.04527175
Mn       4.03209431       2.68673318       7.04071784      -0.11729006       0.06865627       0.01903251
Mn       1.33335376       0.10518025       7.03561511       0.11817691      -0.09692430       0.03771919
Mn       1.47497116       2.74426098       3.36263584       0.13622041       0.04567040      -0.04746991
Mn       4.03204883       0.10148583       7.03893160      -0.09841342      -0.05543083       0.03236020
C        2.68260660       4.06253797       7.02373330      -0.03971483      -0.00242657      -0.13569213
Pt       0.01413738       1.39557929       1.62706392       0.00237869       0.00286815      -0.18137735
Mn       0.00809112       4.06697175       1.65135117       0.01560397      -0.01442133       0.03172803
Pt       0.01073391       4.06327312       5.12832576       0.00968221       0.00087701       0.23608866
7
Lattice="4.771322727203369 0.0 1.1538296937942505 2.2446042600245724 4.209940658574187 1.1553398370742798 0.0 0.0 10.485669136047363" Properties=species:S:1:pos:R:3:forces:R:3 sample_seed=85001 sample_index_within_seed=0 benchmark_method=GBSA-TCL dft_verified=F structure_index=0 total_energy=-52.90915298461914 stress="1.1431885957717896 -0.06888645887374878 0.32648739218711853 -0.06888623535633087 1.214380145072937 0.20103812217712402 0.3264882564544678 0.20103853940963745 -0.13679689168930054" pbc="T T T"
Eu       2.95496657       0.78507557       5.99251105       0.01864515       0.00797751      -0.03818825
Eu       2.35008237       3.28400001       8.51440407      -0.01467223      -0.00627374       0.03506290
Pt       2.21247322       0.33884919       9.08366280      -0.01263866      -0.00966743       0.06128535
Eu       3.77365028       4.13973841       2.58873132       0.00422698       0.00099069      -0.00817427
Pt       3.09384224       3.73126701       5.42005129       0.00941577       0.00594117      -0.04640912
In       4.36089847       1.62743955      10.64328784       0.05179843       0.03241667      -0.20583503
In       5.71672003       2.44151558       5.01939096      -0.05677539      -0.03138485       0.20225838
19
Lattice="3.7311127185821533 0.0 -0.008132594637572765 -0.03357605377075604 10.024691619936942 0.07182526588439941 0.0 0.0 10.015890121459961" Properties=species:S:1:pos:R:3:forces:R:3 sample_seed=85002 sample_index_within_seed=0 benchmark_method=GBSA-TCL dft_verified=F structure_index=0 total_energy=-110.67599487304688 stress="-1.577667474746704 -0.07199076563119888 -0.04584009200334549 -0.07199057936668396 -0.920413076877594 -0.20692124962806702 -0.04583986476063728 -0.20692157745361328 -0.967564582824707" pbc="T T T"
Gd       2.60661716       7.69295578       0.75728340      -0.00465670      -0.00604858       0.13543196
Li       2.62968140       0.67334488       1.25921870       0.00660573      -0.01338043       0.10087234
Gd       2.62383630       2.68628371       9.23920556      -0.00042327       0.03252482      -0.04950377
Li       2.62420761       3.30560981       6.23105699      -0.01370775       0.07467563      -0.06316863
Li       2.61374055       5.68174782       8.67450539       0.00187088      -0.02087736       0.00483470
Gd       2.62829713       1.19400893       4.23745066       0.00580799      -0.16679941       0.01790426
Au       0.76054083       2.38463502       1.84185685      -0.00125078       0.08451773       0.01750163
Au       0.76745532       0.10162907       9.60469613      -0.00609149       0.01192953      -0.01556372
Au       0.74999287       5.09716531       0.40891114       0.00069021      -0.03821943       0.00656280
In       2.60202420       9.51185491       7.54328739      -0.00744425      -0.08109055      -0.11568774
Au       0.76084163       1.58586987       6.78892469       0.00486896       0.06958663       0.00334379
Au       0.73451844       9.45241739       2.52779934      -0.00113205      -0.23411056       0.22938636
Mg       2.61724963       4.44548091       2.44390926       0.00441064       0.09862221       0.04841453
Gd       2.61227573       6.37452952       5.58672169      -0.00316395       0.14867966      -0.09717895
Au       0.74373561       6.54998476       3.09156453       0.00549214      -0.01446499      -0.06778238
Au       0.73868970       8.85098665       5.36161726      -0.00234650      -0.00335757      -0.07482055
Au       0.74113290       7.37414577       8.13911779       0.00752449       0.03509324       0.01133877
Au       0.75545965       3.86387613       4.51128457      -0.00101802      -0.00455856      -0.07938226
Au       0.75239676       4.50165031       7.44523972       0.00396379       0.02727784      -0.01250312
11
Lattice="5.518886566162109 0.0 -1.6423834562301636 -0.1818177984787029 7.282758747154819 -0.6019136309623718 0.0 0.0 10.125727653503418" Properties=species:S:1:pos:R:3:forces:R:3 sample_seed=85003 sample_index_within_seed=0 benchmark_method=GBSA-TCL dft_verified=F structure_index=0 total_energy=-102.70348358154297 stress="-0.00636794650927186 0.017957866191864014 0.019813278689980507 0.01795792765915394 -0.1089211106300354 0.07159395515918732 0.01981336623430252 0.07159401476383209 0.0769987553358078" pbc="T T T"
Li       0.50297089       2.00215445       3.17060623      -0.00106345      -0.03383868      -0.00658345
Eu       4.26777821       3.28585167       5.75348671      -0.00346793       0.01835115      -0.04469848
Eu       3.58224042       0.21778194       3.41415467      -0.01027811       0.05630825      -0.02416466
Li       5.23041652       2.70051436      -1.13334780      -0.00810295      -0.01315372      -0.02700518
Eu       1.04119017       5.10439762       4.99149936      -0.00346179      -0.00377708      -0.01049735
Gd       1.43902158       1.38450962       6.32117287       0.04245098      -0.05695515       0.17191768
Gd       2.50122783       0.92021010      -0.20726778      -0.01908808       0.01143376      -0.07138810
Eu       4.45859282       6.94344698       6.41046786       0.01835752       0.09052294       0.04110150
Eu      -0.01440135       6.07474273       1.43053032      -0.00852506       0.02801368      -0.02968450
Eu       2.11019178       4.52836170       8.58478401       0.00801227      -0.06591181       0.04517836
Eu       3.16317868       3.78002218       2.01461456      -0.01483339      -0.03099336      -0.04417584
8
Lattice="4.765651702880859 0.0 -1.1332013607025146 -2.519300632209195 4.208873002851351 -0.007528895512223244 0.0 0.0 10.581729888916016" Properties=species:S:1:pos:R:3:forces:R:3 sample_seed=85004 sample_index_within_seed=0 benchmark_method=GBSA-TCL dft_verified=F structure_index=0 total_energy=-71.36444091796875 stress="0.03697475045919418 -0.035028234124183655 -0.0609467513859272 -0.0350281223654747 0.0474897138774395 -0.06516019254922867 -0.06094717979431152 -0.06516055762767792 -0.21898353099822998" pbc="T T T"
Eu       2.06156779       0.90939393       7.76225800      -0.02787329      -0.01622642      -0.12925294
Eu      -2.09746277       4.13356909       0.84544788      -0.05552445      -0.01692184      -0.11410463
Eu       3.36075942       1.69008736       2.61464679       0.07124706       0.04376654       0.33942094
Pt       1.26105610       0.43004413       4.38603331      -0.00936604      -0.00542172      -0.05390966
Eu       1.44233563       3.39942159       5.15561390       0.00675296       0.00361977      -0.00036161
Pt      -0.00612067       2.53024519       9.66270883      -0.01940346      -0.01454232      -0.10795574
Pt      -0.65587614       2.13958517       6.91463952       0.02089026       0.01080144       0.10366428
Pt       2.69612430       1.29580731      -0.14683163       0.01327698      -0.00507541      -0.03750061
14
Lattice="6.979166030883789 0.0 -3.1693003177642822 -2.721986923170491 7.331785463275704 -0.04737424850463867 0.0 0.0 8.4967622756958" Properties=species:S:1:pos:R:3:forces:R:3 sample_seed=85005 sample_index_within_seed=0 benchmark_method=GBSA-TCL dft_verified=F structure_index=0 total_energy=-127.01944732666016 stress="-0.3234434425830841 -0.03284718841314316 0.07316820323467255 -0.03284713253378868 -0.010901831090450287 -0.09384535253047943 0.07316778600215912 -0.09384536743164062 -0.10900559276342392" pbc="T T T"
Eu       2.20746100       3.01170001       4.19951670       0.01157559      -0.03738299      -0.10472099
Eu       1.90538202       5.66396275       0.45633235       0.04928947       0.00987758      -0.00180408
Eu       2.18920186       0.20969888       6.87171812      -0.12748574       0.00800097       0.04612995
Eu       4.78863484       0.07951832       3.87933310       0.07111810      -0.02395811      -0.01195557
Eu       0.00307445       1.53399292       1.74117511       0.04009254       0.01580707      -0.08927417
Eu      -0.54302192       3.26636255       6.81180238      -0.02625930       0.01941829       0.04199944
Eu       4.42304375       5.23364750      -2.55200825       0.01052834       0.01704448       0.09660259
Eu       4.03079859       2.40537698       0.65543211       0.01726410      -0.01248065       0.03625350
Au      -0.17820727       0.79810157       4.74648092       0.01453245       0.02837524       0.04022088
Pt       1.32966483       5.37022051       5.89572233      -0.00491310       0.00187283      -0.00530005
Au       4.03719009       5.09305707       2.73373746      -0.01343876       0.03009457       0.02031073
Eu      -0.87254147       5.58999994       3.74067587      -0.04596769      -0.02121377       0.00033324
Pt       2.45938929       0.02455496       1.50882273       0.06695377      -0.03065344      -0.08619115
Pt       4.43680400       2.25154476       5.97628083      -0.06328970      -0.00480212       0.01739579
9
Lattice="4.129247188568115 0.0 -0.008322572335600853 -0.017039429784352484 6.651707282303861 -3.9114060401916504 0.0 0.0 7.646897792816162" Properties=species:S:1:pos:R:3:forces:R:3 sample_seed=85006 sample_index_within_seed=0 benchmark_method=GBSA-TCL dft_verified=F structure_index=0 total_energy=-103.97479248046875 stress="-1.1443344354629517 -0.05931924656033516 -0.05640377849340439 -0.05931898206472397 -1.3014464378356934 0.08331363648176193 -0.056404005736112595 0.08331298828125 -1.1009999513626099" pbc="T T T"
Gd       1.51732417       4.78025290       3.12516108       0.01477443       0.03503691       0.01571827
Gd       3.59045030       1.81097585       2.86913602       0.00061883      -0.10220090       0.05676956
Pt       1.52513289       2.64105201       4.99264591       0.00527017      -0.01499930      -0.03241367
Gd       3.59335888       0.75471815       6.14569255       0.00228325      -0.05849692      -0.13157739
Gd       1.52509980       3.04284849       0.14269855      -0.00978662      -0.00390495      -0.04109558
Pt       1.52972491       0.36926196       1.10960093      -0.00307921       0.04041988       0.01402843
Gd       3.58183514       5.09684305      -1.73647049      -0.00037713       0.04958411       0.14911591
Pt       3.58667392       4.55763945       1.25169282      -0.01204006       0.01531367      -0.02265451
Pt       1.51487969       6.40499623       0.16048685       0.00233632       0.03924742      -0.00789088
4
Lattice="3.7676024436950684 0.0 0.004638036247342825 0.002190437285996373 6.062680325582123 0.007542127277702093 0.0 0.0 6.475525856018066" Properties=species:S:1:pos:R:3:forces:R:3 sample_seed=85007 sample_index_within_seed=0 benchmark_method=GBSA-TCL dft_verified=F structure_index=0 total_energy=-32.364471435546875 stress="-0.83536297082901 0.002173772780224681 0.005521100014448166 0.0021737569477409124 -0.4874294698238373 0.01420893706381321 0.005520969163626432 0.014208951964974403 -0.4359232783317566" pbc="T T T"
Li       0.58710395       4.98873570       3.42559012       0.00059381      -0.00009965      -0.00291293
Eu       0.59012676       1.95439188       5.55249070      -0.00177206       0.00306900      -0.02470588
Eu       2.47364979       1.95886972       2.40441375       0.00029942      -0.00412817       0.03705752
Eu       2.47112195       4.98675326       0.19579488       0.00087883       0.00115883      -0.00943871
12
Lattice="4.484848976135254 0.0 0.0021447623148560524 0.002138672398399546 7.361813234575355 0.015917548909783363 0.0 0.0 7.944222927093506" Properties=species:S:1:pos:R:3:forces:R:3 sample_seed=85008 sample_index_within_seed=0 benchmark_method=GBSA-TCL dft_verified=F structure_index=0 total_energy=-98.6756362915039 stress="0.2482081651687622 0.006008618511259556 0.02636311575770378 0.006008639000356197 -0.7765573263168335 0.058069806545972824 0.026363126933574677 0.05806988477706909 0.7711946964263916" pbc="T T T"
Eu       1.29684759       0.06779754       1.22898904       0.00052351       0.00469546       0.02605415
Pt       3.54178367       5.93941225       7.53501010      -0.00906307      -0.06995238       0.08347866
Eu       3.53877099       3.74663553       5.21410939       0.00567088       0.00866497       0.01735721
Pt       3.53936925       1.55847551       7.52608504       0.00467215       0.07601310       0.10036002
Pt       1.29806313       5.93817396       6.12303170       0.00987916      -0.07311580      -0.11169146
Pt       1.29867692       5.23847371       3.56011065      -0.00328275       0.07441399       0.10804190
Eu       1.29774684       3.75027887       0.49397397      -0.00026562      -0.00521233      -0.02457078
Eu       3.54141364       0.06852169       4.45229372      -0.00418609      -0.00562381      -0.00727080
Pt       3.54102877       5.24472921       2.14886048       0.00169726       0.05863260      -0.08611424
Pt       3.53894087       2.25733250       2.14298090       0.01393902      -0.06937136      -0.10190756
Pt       1.29832909       1.55855954       6.11426373      -0.00459021       0.06792459      -0.09800217
Pt       1.29878177       2.25688602       3.55416703      -0.01499425      -0.06706904       0.09426505
8
Lattice="4.059485912322998 0.0 0.011685275472700596 -2.0063059430565757 6.535779644908144 0.01852000504732132 0.0 0.0 9.971391677856445" Properties=species:S:1:pos:R:3:forces:R:3 sample_seed=85009 sample_index_within_seed=0 benchmark_method=GBSA-TCL dft_verified=F structure_index=0 total_energy=-70.44544982910156 stress="-0.25631242990493774 0.03774510324001312 0.02967846393585205 0.03774512931704521 -0.12159956246614456 0.03428881987929344 0.029678452759981155 0.03428874909877777 -0.15388762950897217" pbc="T T T"
Eu      -0.43981089       5.63193702       3.34764075      -0.00480395      -0.10369530      -0.00157281
Eu       1.56971376       1.05936799       8.32126924       0.00366167       0.10861545       0.00224036
Eu      -0.45683843       1.93309410       1.48962963       0.00482364       0.06927112      -0.03199520
Eu      -0.45223064       1.92805588       5.17371191      -0.00020504       0.08053976       0.03914084
Eu       1.58260089       4.76048264       0.20392316      -0.00215997      -0.06825149       0.04053824
Eu       1.58462224       4.76584108       6.50069500      -0.00237595      -0.07736119      -0.05261015
Cu       1.57940905       3.31202885       3.34652535       0.00123482       0.08268388      -0.00567779
Cu      -0.45064404       3.38567999       8.31943197      -0.00017524      -0.09180223       0.00993650
3
Lattice="3.675222635269165 0.0 -0.9930631518363953 -0.2644412354940223 3.666800093157016 -1.0066930055618286 0.0 0.0 7.193069934844971" Properties=species:S:1:pos:R:3:forces:R:3 sample_seed=85010 sample_index_within_seed=0 benchmark_method=GBSA-TCL dft_verified=F structure_index=0 total_energy=-25.50574493408203 stress="-0.13902343809604645 0.03290558233857155 0.03908098489046097 0.032905809581279755 -0.12173158675432205 0.006458404939621687 0.039080966264009476 0.006458256859332323 -0.14329147338867188" pbc="T T T"
Eu       1.86767095       1.09103285       1.86652080      -0.01402500      -0.01163353      -0.03345616
Au       0.34581229       3.41122696       3.51325254       0.00330773       0.00103630      -0.00049484
Eu       2.76781648       2.06596620       5.17296058       0.01071728       0.01059724       0.03395101
9
Lattice="4.286113739013672 0.0 -3.7486304790945724e-05 2.1475883200228054 7.099533247549561 -0.3609580397605896 0.0 0.0 9.146836280822754" Properties=species:S:1:pos:R:3:forces:R:3 sample_seed=85011 sample_index_within_seed=0 benchmark_method=GBSA-TCL dft_verified=F structure_index=0 total_energy=-70.46754455566406 stress="-0.7515059113502502 0.013623601756989956 -0.00013025844236835837 0.013623648323118687 -0.09247176349163055 -0.04497993737459183 -0.0001303345779888332 -0.0449797660112381 -0.26245689392089844" pbc="T T T"
Eu       2.67914254       6.20726201       4.65170302       0.00853900       0.00646467       0.05793324
Eu       0.53327017       0.10111067       1.57819646       0.00448706       0.01139702       0.04504745
Au       4.82418919       2.60642570       8.59443484      -0.00474458       0.01894370      -0.07204103
Eu       4.82162756       3.08740981       5.24037934      -0.00002939      -0.01253933       0.08231865
Au       4.82602167       5.29548836       2.66689526      -0.01009037       0.09206511       0.05344193
Eu       2.68028676       3.32375750       1.63213475       0.00210943       0.01612234       0.10886216
Eu       2.67906710       0.69138300       7.62365271      -0.00061854      -0.09865879      -0.16062436
Au       2.67671093       1.13629853       3.95824210      -0.00021474      -0.03671692      -0.01880528
Pb       2.68035126       4.81430175       7.66171207       0.00056210       0.00292224      -0.09613281
11
Lattice="3.7908034324645996 0.0 -1.0646734237670898 -0.4803487516520594 5.977245227416681 -1.70889413356781 0.0 0.0 7.292694091796875" Properties=species:S:1:pos:R:3:forces:R:3 sample_seed=85012 sample_index_within_seed=0 benchmark_method=GBSA-TCL dft_verified=F structure_index=0 total_energy=-77.1738052368164 stress="-0.43553853034973145 -0.09983140230178833 -0.07432887703180313 -0.0998309776186943 -0.7048973441123962 -0.30524951219558716 -0.07432867586612701 -0.305250346660614 -0.553274929523468" pbc="T T T"
Fe       1.38506168       1.80268502       2.03652128       0.00864221       0.12371172       0.01864301
Pt       1.48613430       4.49102164       2.39236660       0.01416497      -0.01804858       0.06174438
Pt       0.66916070       2.39590909      -0.51879969      -0.02466050      -0.01314452      -0.06294774
Mn       0.03477188       5.65470081       4.50986106      -0.00914205      -0.00518012      -0.00582001
Fe       2.95194764       3.52614700       0.33322115      -0.00151686      -0.11964866      -0.02056338
Pt       2.23115230       4.03467480       5.05533720       0.01424867      -0.07452470       0.02813247
Pt      -0.12154206       2.93638821       3.95036273       0.01422981      -0.00061746       0.07639569
Pt       3.58194861       0.17425529       2.57309192      -0.04932438       0.01633387      -0.15574442
Pt       0.75746311       5.15442640      -0.20420562       0.03800921       0.00067995       0.16203749
Pt       2.10601251       1.29536569       4.60880823      -0.00298064       0.07599504      -0.05267055
Pt       2.85114226       0.83984959      -0.02462720      -0.00167042       0.01444331      -0.04920686
9
Lattice="5.246031284332275 0.0 -2.4665913581848145 -0.8992588666512373 6.503700693232865 -1.85405695438385 0.0 0.0 7.771327495574951" Properties=species:S:1:pos:R:3:forces:R:3 sample_seed=85013 sample_index_within_seed=0 benchmark_method=GBSA-TCL dft_verified=F structure_index=0 total_energy=-53.00368118286133 stress="0.5722380876541138 0.18196824193000793 0.3611535429954529 0.1819683313369751 1.0602333545684814 -0.04011112079024315 0.36115336418151855 -0.04011109098792076 0.22035594284534454" pbc="T T T"
Eu       3.12392879       0.11238222       1.46805293       0.03025228       0.19896945       0.09241664
Pb       0.59498610       1.95316193       2.83441602      -0.02558769       0.04516693       0.06040272
Eu       3.41451831       3.85430267       2.04785142       0.04532444      -0.03736149       0.04945998
Pb       0.14708910       5.23363156       1.96560978      -0.00362775      -0.02709563       0.08795445
Pb       1.46025665       4.71965122       4.90817462      -0.00087988      -0.08787636      -0.18554306
Ag       4.28990347       5.70565413      -3.26753533      -0.01991475      -0.04135939       0.02006115
Ag       0.30500857       0.60248111       6.27170548       0.03046322       0.00126470       0.00891336
Ag       0.95515300       3.17689807      -0.19777519      -0.06047233      -0.02279207      -0.06415741
Eu       3.22488422       1.83163457      -2.15448158       0.00444246      -0.02891614      -0.06950778
11
Lattice="3.9228367805480957 0.0 0.0007639499381184578 -1.9655926639488541 3.3878413578677593 0.0014808813575655222 0.0 0.0 13.924593925476074" Properties=species:S:1:pos:R:3:forces:R:3 sample_seed=85014 sample_index_within_seed=0 benchmark_method=GBSA-TCL dft_verified=F structure_index=0 total_energy=-93.43023681640625 stress="-14.272127151489258 -0.2869170308113098 0.02424001693725586 -0.2869111895561218 -15.665645599365234 0.19999168813228607 0.024244869127869606 0.1999821960926056 -5.853453159332275" pbc="T T T"
Gd       2.59343811       1.28337490      13.22041805       0.06307396      -0.09261961      -4.24416828
Mn       2.59842720       1.27912546       9.93195332      -0.10787335       0.03783762       1.88067031
Mn       0.62977971       2.40828822       3.39358223       0.08511698      -0.01627429      -0.03814724
Mn       0.63492551       0.15194403      10.81824989       0.12360150      -0.04449809      -2.26238918
Mn       0.63743440       0.14801129       4.09536620      -0.09522794       0.09893067      -0.04339105
Mn       2.59495597       1.27894564       2.68267316       0.01713583      -0.06375133      -0.08569342
Mn       0.63436006       2.41022818      11.42565437      -0.07565680       0.00936329       5.86874676
Al       2.59487983       1.28267127       5.19589530       0.06134649      -0.15832788      -3.64335847
Al       0.63669247       0.14573475       1.57667965      -0.07276390       0.16190995       4.10745478
Gd       0.63706711       0.14792476       7.48975443       0.00242644       0.05423523       4.80249310
Mn       0.63477718       2.40805802       9.31208116      -0.00117972       0.01319366      -6.34221840
8
Lattice="3.8787105083465576 0.0 -0.0011736857704818249 0.007932002846752204 6.771565083200954 -3.926974058151245 0.0 0.0 7.810117721557617" Properties=species:S:1:pos:R:3:forces:R:3 sample_seed=85015 sample_index_within_seed=0 benchmark_method=GBSA-TCL dft_verified=F structure_index=0 total_energy=-51.794410705566406 stress="-0.9142776131629944 0.015910908579826355 -0.004017292521893978 0.015910720452666283 -0.700489342212677 0.03442124277353287 -0.004017136059701443 0.034421730786561966 -0.65841144323349" pbc="T T T"
Tl       0.64732276       0.87525539       2.91540092       0.00144400       0.01611447      -0.04473293
Eu       2.59310250       4.86884800      -0.69844759      -0.00227575       0.01992678       0.02693585
Cu       0.65211547       5.30380517      -3.05053941       0.00191338      -0.01965208      -0.03278835
Eu       2.58766788       0.85199738       0.18471789      -0.00090707      -0.00560500      -0.04325159
Gd       2.59103858       3.60522169       3.21556311      -0.00021078      -0.03493724       0.01843686
Tl       0.65446138       5.90970210       1.87818414      -0.00132764      -0.04329309       0.02828143
Cu       0.65167383       3.11065578       0.97270177      -0.00081870       0.02064152       0.03216745
Tl       0.64922791       2.50607969       5.73311322       0.00218254       0.04680467       0.01495123
8
Lattice="4.176204204559326 0.0 0.002163938246667385 -2.091752184273617 3.6134183351479865 -0.004203940276056528 0.0 0.0 12.79352855682373" Properties=species:S:1:pos:R:3:forces:R:3 sample_seed=85016 sample_index_within_seed=0 benchmark_method=GBSA-TCL dft_verified=F structure_index=0 total_energy=-67.83390045166016 stress="-1.0114609003067017 -0.029602685943245888 0.004841208457946777 -0.02960272505879402 -1.054409146308899 -0.010489827953279018 0.004840867128223181 -0.010489748790860176 -0.6175647974014282" pbc="T T T"
Eu       1.51672019       1.71347429       7.66702428      -0.00195462       0.00386906       0.05650693
Pt       1.51550269       1.71651401       4.75927823      -0.00928553       0.00797911       0.23988530
Pt      -0.57451383       2.92185209       9.77907825      -0.00665957       0.00375931      -0.02546227
Gd       3.60262584       0.51340964       3.01544866       0.00794694      -0.00451881       0.09076339
Si       3.60370995       0.51304361       9.76730726       0.00907671      -0.00751031      -0.07214414
Au      -0.57357796       2.92192338       1.11985000      -0.00330762       0.00074790       0.07861452
Si      -0.57419093       2.92131150       5.16753104       0.00534318      -0.00472311      -0.32017791
Eu       1.51498135       1.71784934      11.89167094      -0.00115949       0.00039688      -0.04798570
20
Lattice="5.389102458953857 0.0 -0.0007833590498194098 0.014924256146175988 5.680112782676475 -0.00454917224124074 0.0 0.0 7.765518665313721" Properties=species:S:1:pos:R:3:forces:R:3 sample_seed=85017 sample_index_within_seed=0 benchmark_method=GBSA-TCL dft_verified=F structure_index=0 total_energy=-187.55264282226562 stress="-0.9273337125778198 0.19803433120250702 -0.010271419771015644 0.1980362832546234 -0.643818199634552 -0.09227863699197769 -0.010272685438394547 -0.0922795757651329 -0.48856863379478455" pbc="T T T"
Gd       1.66381626       1.46615173       7.21825304       0.01996905       0.11999597       0.03476410
Gd       1.46854147       0.73832119       3.33790317      -0.02878028      -0.14436372      -0.02333627
Fe       4.26077689       1.10048618       1.39495186      -0.00569837      -0.00009954      -0.00036926
Fe       4.26061906       1.10166463       5.27947829      -0.00899055      -0.01561881      -0.01738720
Gd       4.36410188       3.57718077       3.33473761       0.03971312      -0.12416022      -0.02597626
O        0.51659663       2.22286288       4.83206098      -0.03577498       0.01755846       0.07837139
Fe       1.57216248       3.94127107       1.39430802       0.00181054       0.00076792      -0.01023121
O        2.62677404       5.66012041       5.72002072       0.04799791      -0.02215667      -0.08082553
O        3.66472203       1.32521890       3.33478014       0.07256606      -0.01134981       0.02992010
Fe       1.57100826       3.94050288       5.27651687       0.00359187       0.01777170      -0.00269721
O        4.85614272       0.87562389       7.21979981      -0.07337646       0.01696546      -0.01960946
Gd       4.16772744       4.30436059       7.21645945      -0.02776604       0.13536873       0.02095068
O        5.32104097       5.06137645       4.82765918       0.02485257       0.03053156       0.08014226
O        2.62626901       5.65856235       0.94695973       0.05346795      -0.00578417       0.05763887
O        0.97366517       3.71635139       7.21989482       0.07592297       0.02520199      -0.03832538
O        2.16986276       4.16612135       3.33372003      -0.06803897      -0.02912520       0.02139650
O        0.51875255       2.22417548       1.83930362      -0.04650077      -0.00073674      -0.05170690
O        3.21245192       2.81942989       5.72180922      -0.03058748      -0.01756270      -0.06924344
O        3.21386064       2.81730119       0.94739263      -0.03497627       0.00290840       0.06114025
O        5.32116593       5.06370237       1.83617381       0.02059838       0.00388747      -0.04461567
6
Lattice="4.8293328285217285 0.0 2.7536280155181885 1.6243683723032798 4.55542556561207 2.7718396186828613 0.0 0.0 5.576224327087402" Properties=species:S:1:pos:R:3:forces:R:3 sample_seed=85018 sample_index_within_seed=0 benchmark_method=GBSA-TCL dft_verified=F structure_index=0 total_energy=-29.18230438232422 stress="-2.023603677749634 0.06217847019433975 -0.17721788585186005 0.06217849999666214 -1.955316424369812 -0.07563787698745728 -0.17721831798553467 -0.07563797384500504 -1.9600777626037598" pbc="T T T"
Au       5.37677715       1.80551399       8.18402153       0.03431289       0.03966133       0.06338933
Au       6.19282704       4.08099837       9.57487214      -0.01787509      -0.04590614      -0.02458352
Au       5.37878171       1.80782751       5.39164526       0.00124722       0.00648167      -0.03261047
Eu       2.95759464       0.09835409       4.01633212       0.00464789      -0.00229002       0.00953842
Au       2.96902527       3.51504216       4.01620666       0.00151200      -0.00063615      -0.00425334
Au       2.95830670       1.80821240       6.80537232      -0.02384491       0.00268932      -0.01148042
16
Lattice="4.401978015899658 0.0 0.007495439145714045 -2.192557486059954 4.413885741091629 -2.192232131958008 0.0 0.0 8.8438138961792" Properties=species:S:1:pos:R:3:forces:R:3 sample_seed=85019 sample_index_within_seed=0 benchmark_method=GBSA-TCL dft_verified=F structure_index=0 total_energy=-109.77714538574219 stress="1.3006808757781982 0.18365760147571564 0.16196070611476898 0.18365685641765594 1.6184242963790894 0.2997848689556122 0.16195960342884064 0.2997838854789734 1.7913453578948975" pbc="T T T"
Mg       1.81291860       3.99688270       2.11505412      -0.00053272      -0.02144016      -0.00154627
Mg      -0.38977991       3.98315950       4.30756213       0.00969918      -0.04032765      -0.06959069
Mn       1.81279292       4.01714337       6.54892032      -0.00369961       0.00756982       0.01215748
Mg      -0.38752693       4.02220361      -0.07693867      -0.00625199       0.05214257       0.09036458
Mn       1.80714495       1.82523178      -0.07940062       0.00912557       0.04983690       0.00945345
Mg      -0.39136566       1.80710343       2.11078524      -0.00553417       0.01370088       0.01619578
O       -0.38827075       3.99928101       6.53309185      -0.00299513      -0.04546940       0.01399794
O       -0.39346630       1.87425167      -0.04875141       0.00768936       0.04560911       0.05163045
O        1.81064678       3.99763302       4.27322314       0.01273497       0.02808467      -0.04070698
Mn       1.80940510       1.77298012       4.30383854      -0.00196333      -0.04980203      -0.04740006
O       -0.38895446       3.94347239       2.11590639       0.00108808      -0.01588504       0.02675957
O        1.80736582       1.78863451       2.10721404       0.00955006      -0.01556483      -0.03411580
O       -0.39054290       1.80175327       4.25884920      -0.01963123       0.00637991      -0.00362154
Mn      -0.39255999       1.78474055       6.52152631      -0.00177594      -0.01893841      -0.02537423
O        1.81337889       4.08070993      -0.03304225      -0.00390503       0.02570191      -0.00540078
O        1.80826268       1.72369438       6.53612113      -0.00359817      -0.02159858       0.00719735
4
Lattice="4.150932312011719 0.0 -0.002592099830508232 0.0053477459893448865 4.1497920864665465 -0.0027170421089977026 0.0 0.0 4.14743185043335" Properties=species:S:1:pos:R:3:forces:R:3 sample_seed=85020 sample_index_within_seed=0 benchmark_method=GBSA-TCL dft_verified=F structure_index=0 total_energy=-30.721393585205078 stress="-2.894305944442749 0.08669956773519516 -0.04226415231823921 0.08670071512460709 -2.9193599224090576 -0.04424595460295677 -0.04226366803050041 -0.04424741864204407 -2.970560312271118" pbc="T T T"
Eu       3.54194597       1.47531446       3.11939003       0.00440285       0.00711353       0.01185109
Pt       1.47066297       3.55226113       3.11958113      -0.01017491      -0.01345201       0.00526611
Pt       1.46598094       1.47562834       1.04865188       0.00380431       0.00257027      -0.01096684
Pt       3.54471927       3.54979682       1.04531055       0.00196778       0.00376810      -0.00615034
12
Lattice="4.029169082641602 0.0 0.004348111804574728 -2.0336150800728494 6.79844193524587 -0.19010686874389648 0.0 0.0 12.161444664001465" Properties=species:S:1:pos:R:3:forces:R:3 sample_seed=85021 sample_index_within_seed=0 benchmark_method=GBSA-TCL dft_verified=F structure_index=0 total_energy=-117.79781341552734 stress="-1.185372233390808 -0.12481515854597092 0.024689458310604095 -0.1248152107000351 -1.0750083923339844 -0.09901289641857147 0.024689439684152603 -0.09901275485754013 -0.7470129728317261" pbc="T T T"
Se       1.14835647       3.51239937       2.52989721      -0.01523790      -0.16171591      -0.01443055
Gd       1.15304169       2.29874723       5.05078119      -0.01633908      -0.07484442      -0.19088009
Eu       1.15233636       1.91996660       0.00394750       0.00147988      -0.07379215       0.08798139
Gd       1.14160571       5.96971577       6.89959022       0.00203679       0.08135355      -0.29154354
Gd      -0.87284357       5.54512840       2.68674466       0.00687376      -0.04294559       0.13427432
Gd       1.14271009       5.65536289      10.35068738       0.00342398      -0.14100094       0.49489576
Se      -0.86673519       3.81887601      11.22814342      -0.00262857       0.20234278      -0.21626633
Eu       3.16778187       2.75456358       8.49555329       0.00142401      -0.23077896      -0.17820100
Se       1.13866999       6.79420537       0.82198929      -0.00869767      -0.08164474      -0.21832438
Se       1.15779071       0.44470819       9.10908342       0.00759935       0.29016590       0.04212671
Se       3.16923401       0.31516534       4.44112311       0.00587341       0.08224566       0.10267395
Se      -0.86970758       4.21667395       5.76639931       0.01419194       0.15061483       0.24769382
12
Lattice="4.658642768859863 0.0 0.0006129065877757967 -0.00026643666064189297 7.893517966542187 -0.008718534372746944 0.0 0.0 9.371625900268555" Properties=species:S:1:pos:R:3:forces:R:3 sample_seed=85022 sample_index_within_seed=0 benchmark_method=GBSA-TCL dft_verified=F structure_index=0 total_energy=-115.51287078857422 stress="0.13198719918727875 -0.0009401791030541062 -0.002795630833134055 -0.0009402059949934483 0.04577236622571945 -0.01783629320561886 -0.002795521169900894 -0.01783638261258602 -0.08915632963180542" pbc="T T T"
Eu       0.28548388       1.92267722       4.46723796       0.00030793      -0.02139486       0.02473856
Eu       2.61099299       6.17210722       9.15039188       0.00628641       0.01130424       0.02626942
Eu       0.28563332       4.86024749       2.24110791      -0.00188296       0.08023626      -0.01018905
Eu       2.61458835       3.22692053       6.92882811       0.00180004      -0.07293898      -0.01021986
Eu       2.61535321       7.17156984       3.59053637       0.00092634      -0.06779441       0.01396719
Eu       0.28603506       0.91429963       8.28064992      -0.00092463       0.07827936       0.02429422
Pt       0.28795047       0.07149044       1.88022308      -0.00183289       0.04736634      -0.08789781
Eu       2.61581218       2.22830621       1.36908675      -0.00048324      -0.00103977      -0.01943382
Eu       0.28532793       5.86880563       6.05407937      -0.00018033      -0.02180531      -0.02553699
Pt       2.61428263       4.06610074       3.97043327       0.00093447      -0.03305437       0.06024914
Pt       2.61642387       0.12344936       6.55925161      -0.00212060      -0.04230394      -0.06950073
Pt       0.28596127       4.01805944       8.65198589      -0.00283051       0.04314535       0.07325968
10
Lattice="3.876558303833008 0.0 -0.8868628740310669 -0.7426051843993245 8.559930551162644 -3.244913101196289 0.0 0.0 8.931039810180664" Properties=species:S:1:pos:R:3:forces:R:3 sample_seed=85023 sample_index_within_seed=0 benchmark_method=GBSA-TCL dft_verified=F structure_index=0 total_energy=-96.51998138427734 stress="-0.15927532315254211 -0.1650102734565735 0.003751066280528903 -0.16501064598560333 1.5682505369186401 -0.722613513469696 0.0037509051617234945 -0.7226129174232483 -0.17335565388202667" pbc="T T T"
Eu       1.41776074       3.09071020       5.46567067       0.01483420      -0.19518119       0.06044768
Eu       0.15758750       4.36754973      -0.07162017      -0.00075583      -0.15654519      -0.00926936
Eu       2.61378268       1.97687857       1.85313974       0.10634212       0.17751214       0.44942772
Eu       2.88110984       5.55085395       2.92370866      -0.00811540       0.01918296      -0.03226949
Eu       3.81498702       0.60724539       7.00048666      -0.11934265       0.21994348      -0.53307575
B        2.04366799       2.34393616      -0.76513589       0.07382894      -1.09204531       0.35432810
Eu       0.40440156       8.05191131       1.03861911       0.01041889       0.16434650       0.04717895
O        2.16970425       0.88934522      -0.20936127      -0.06100626       0.53132343      -0.26233554
Gd       1.61853840       7.04925109      -2.61516884      -0.02195206       0.34274516      -0.09008481
B        3.20954721       1.30532082       4.38214240       0.00574800      -0.01128168       0.01565235
4
Lattice="3.8458006381988525 0.0 -1.1613202095031738 -0.7470604403640378 5.275481005972927 -2.4885382652282715 0.0 0.0 6.974007606506348" Properties=species:S:1:pos:R:3:forces:R:3 sample_seed=85024 sample_index_within_seed=0 benchmark_method=GBSA-TCL dft_verified=F structure_index=0 total_energy=-34.150943756103516 stress="-0.05462883412837982 -0.042424894869327545 -0.10927131026983261 -0.04242491349577904 -0.16215559840202332 -0.1401507556438446 -0.10927137732505798 -0.14015068113803864 -0.33803626894950867" pbc="T T T"
Eu       0.54517723       3.43219250      -1.69425201      -0.02194492      -0.04665165      -0.07733282
Eu       3.09657254       1.21893620      -0.18897447       0.02144367       0.05329738       0.07890633
Eu      -0.47472720       4.96925486       1.87558449       0.00087570      -0.00434967       0.00779981
Ag       1.82023775       2.33426857       2.54698420      -0.00037447      -0.00229607      -0.00937333
10
Lattice="4.259679317474365 0.0 -0.003700477071106434 -2.137495729310672 7.496437829866064 -0.01173972524702549 0.0 0.0 7.757566928863525" Properties=species:S:1:pos:R:3:forces:R:3 sample_seed=85025 sample_index_within_seed=0 benchmark_method=GBSA-TCL dft_verified=F structure_index=0 total_energy=-64.10255432128906 stress="-0.17128697037696838 -0.019344819709658623 -0.019303778186440468 -0.01934477873146534 0.08360469341278076 -0.030055010691285133 -0.019303681328892708 -0.030055057257413864 -0.3966785669326782" pbc="T T T"
Au       3.08173324       1.13927375       4.11375525       0.00057411       0.01655002       0.00235232
Li       0.94895583       5.84589066       4.10758700      -0.00324855       0.01972593      -0.00124084
Au       0.94461232       5.60633481       0.22979313       0.00864628       0.11408524      -0.00421109
Au       3.08091760       1.39635163       0.23377936      -0.00008487      -0.01701548       0.00177225
Li      -1.18272555       4.19049546       0.23809109      -0.00102342      -0.03659431       0.00070712
Eu      -1.18471499       7.02860483       2.09653958       0.00224141       0.00524592      -0.07282600
Eu      -1.18322811       7.03333042       6.11876298      -0.00071823      -0.00641073       0.08035912
Eu       0.95066414       3.00134860       5.98240301      -0.00378724       0.00451791      -0.08205873
Au      -1.18009804       4.42310187       4.11130136      -0.00224375      -0.10307851       0.00324745
Eu       0.94914359       2.99714601       2.24619859      -0.00035573       0.00297397       0.07189845
11
Lattice="5.438779830932617 0.0 -1.6173288822174072 -0.7159339944126158 6.793902534027987 -2.4203507900238037 0.0 0.0 9.982305526733398" Properties=species:S:1:pos:R:3:forces:R:3 sample_seed=85026 sample_index_within_seed=0 benchmark_method=GBSA-TCL dft_verified=F structure_index=0 total_energy=-98.30790710449219 stress="0.09488847106695175 -0.009495021775364876 0.0936613380908966 -0.009495113044977188 -0.0031234961934387684 -0.02509303018450737 0.09366139024496078 -0.025093240663409233 0.4014660716056824" pbc="T T T"
Eu       3.44770117       1.18129985       1.81189036      -0.01928130       0.02532712      -0.06894155
Eu      -0.09687627       5.68617012      -0.17120883      -0.00720821       0.05718149      -0.01265755
Eu       2.27891428       0.81468081       7.85976337      -0.02026186       0.12477344      -0.06819582
Eu       3.70439807       6.56344654       2.68353355       0.00305460      -0.06867299       0.00240417
Ni       4.52151982       6.12404622       5.43593677       0.00059532      -0.00545728       0.00347520
Eu       2.03789972       4.64086208       7.04427952       0.02738725      -0.12100257       0.07342517
Pb       2.99834291       4.14020889       0.29639463      -0.01328102      -0.01856402      -0.04512559
Eu       0.87183515       4.26939423       3.10834763       0.02371432      -0.01775815       0.07866026
Pb       1.32557092       1.32126927       4.62931235       0.00799588       0.00779561       0.04318109
Eu       4.30263795       3.32186315       4.69363293       0.00029709       0.01546793       0.00868896
Eu       0.02021432       2.12256183       0.23958260      -0.00301209       0.00090939      -0.01491436
16
Lattice="5.582971572875977 0.0 -0.09916245937347412 -1.9153524848752574 6.114188321393648 0.8308637142181396 0.0 0.0 9.80448055267334" Properties=species:S:1:pos:R:3:forces:R:3 sample_seed=85027 sample_index_within_seed=0 benchmark_method=GBSA-TCL dft_verified=F structure_index=0 total_energy=-115.61585998535156 stress="-0.004016929306089878 0.08658740669488907 0.09537477791309357 0.08658710867166519 0.1192927435040474 0.16931703686714172 0.09537459909915924 0.16931714117527008 -0.038723863661289215" pbc="T T T"
Gd       2.25533170       0.10048894       2.31266480      -0.13761820       0.05129346      -0.12454139
Li       1.55856617       5.24490057      10.03892665       0.02828112      -0.01619464       0.02417676
Li       1.75779326       4.14681202       4.67886506       0.06965567       0.01017513       0.00873233
Gd       0.53562609       1.63184991       9.14661814      -0.05128881      -0.08079483      -0.01023766
Li       4.16130548       4.48641861       9.98330597      -0.00360673      -0.05246974       0.03374589
Gd       3.24712273       2.98576586       7.18012039       0.13284813      -0.13452342      -0.09281810
Li       4.97793667       0.34664131       4.68297049      -0.02573194       0.04448504      -0.14722002
Pd       3.15045843       5.75566797       2.52258141      -0.01055301       0.09659056      -0.06081068
Li       2.41819223       3.37043308       2.06231675      -0.05031290       0.06370533      -0.01490485
Pd       3.35521029       1.77118179       9.92439059      -0.01716421       0.04547065      -0.00357004
Pd       0.48121868       2.41392041       6.29201312      -0.02963307      -0.01021390       0.13245511
Pd      -1.20389898       4.33084063       4.87573155      -0.00791855       0.00540001       0.07133356
Eu      -0.45267818       2.51818407       2.80003650       0.08509453      -0.01409332      -0.00615362
Gd       0.16496943       5.63458768       7.06241488       0.06206777       0.09531234       0.12564483
Pd       2.66047333       1.83842533       4.48338593      -0.04369303      -0.13295698      -0.04166274
Pd       2.96338942       5.96356446       7.96522191      -0.00042684       0.02881427       0.10583061
12
Lattice="3.9658851623535156 0.0 -0.0002587787457741797 0.004652331402815499 7.926663940814202 -0.0025743418373167515 0.0 0.0 13.367180824279785" Properties=species:S:1:pos:R:3:forces:R:3 sample_seed=85028 sample_index_within_seed=0 benchmark_method=GBSA-TCL dft_verified=F structure_index=0 total_energy=-89.13871765136719 stress="-0.47389960289001465 0.0057056318037211895 -0.00046050880337134004 0.005705601070076227 -0.4918665587902069 -0.003001780714839697 -0.0004605961439665407 -0.0030018461402505636 -0.32722753286361694" pbc="T T T"
Eu       3.74561590       7.25701805       1.86301000       0.00058759       0.01452994      -0.08779379
Eu       1.76083808       1.31951175      12.52588311      -0.00225619      -0.01383825      -0.01821295
Eu       3.74190879       3.31105133       1.84388098       0.00180526      -0.01496907      -0.00809125
Li       1.76374957       5.27767754       3.81938951      -0.00252324       0.00035261       0.01408991
Eu       3.74550039       7.26763909       5.80135681       0.00030507      -0.00391288       0.06029133
Eu       1.76213520       5.28656368       8.49773183      -0.00034662       0.01275219       0.01719436
Eu       3.74488654       3.30701931       5.80371462      -0.00106452      -0.00487065       0.00263181
Li       1.75838499       1.32293501       3.81924274       0.00101889       0.00730375       0.00730450
Eu       1.76100865       5.28968952      12.51474209       0.00028683       0.00938109      -0.01113412
Eu       1.75804892       1.31560340       8.48967496       0.00099141      -0.00806353       0.03102175
Li       3.74531369       3.30138610      10.50342745      -0.00199531      -0.00411664       0.00332739
Mg       3.74405611       7.26810210      10.50953083       0.00319081       0.00545143      -0.01062893
8
Lattice="4.167097568511963 0.0 0.010828642174601555 -2.0528944958584825 6.454319925175748 0.02576223574578762 0.0 0.0 9.673802375793457" Properties=species:S:1:pos:R:3:forces:R:3 sample_seed=85029 sample_index_within_seed=0 benchmark_method=GBSA-TCL dft_verified=F structure_index=0 total_energy=-78.57406616210938 stress="-0.6478768587112427 0.07593396306037903 0.03022034838795662 0.07593392580747604 -0.2645210325717926 0.040048807859420776 0.030220499262213707 0.04004865512251854 -0.1515837460756302" pbc="T T T"
Eu       0.70693963       0.03362977       5.11131489      -0.00663686      -0.04552011       0.00599607
Eu       0.72275246       3.79494430       3.87319233       0.00596039       0.04727776      -0.00713794
Eu       0.72191327       3.79587606       0.29177493       0.00719915       0.05177978       0.01821765
Eu       2.79595965       0.91642719       2.06795401      -0.01184578      -0.07125045       0.00586846
Eu       0.70741696       0.03551581       8.69239771      -0.00748160      -0.05239238      -0.01794437
Eu       2.80024514       2.91529860       6.92715233       0.01217252       0.06719556      -0.00546091
Pt       0.73163426       5.10061329       6.92340810      -0.00511021      -0.02531597       0.00922692
Pt      -1.35546864       5.18282911       2.08697162       0.00574238       0.02822581      -0.00876594
4
Lattice="3.869342088699341 0.0 -1.394667148590088 -0.0007732066329416835 4.796454844141709 0.00033085208269767463 0.0 0.0 6.056927680969238" Properties=species:S:1:pos:R:3:forces:R:3 sample_seed=85030 sample_index_within_seed=0 benchmark_method=GBSA-TCL dft_verified=F structure_index=0 total_energy=-30.399084091186523 stress="0.17498940229415894 -0.0027143133338540792 0.0024811774492263794 -0.0027142728213220835 0.533689022064209 0.004609317984431982 0.0024810265749692917 0.004609315190464258 0.16048885881900787" pbc="T T T"
Eu       1.78403565       1.42964720       1.05308125      -0.01152460      -0.00211647      -0.01955575
Eu       0.71013976       3.82546299       4.14258143       0.01159216       0.00072276       0.02120496
Au       3.49494959       3.82788048      -0.25413173       0.01548303      -0.00257750       0.03192651
Au       2.86857687       1.42639376       4.05598083      -0.01555061       0.00397121      -0.03357572
10
Lattice="4.040398597717285 0.0 -0.5945712924003601 -0.0829642278193267 3.889514256840009 -0.5528316497802734 0.0 0.0 13.94965648651123" Properties=species:S:1:pos:R:3:forces:R:3 sample_seed=85031 sample_index_within_seed=0 benchmark_method=GBSA-TCL dft_verified=F structure_index=0 total_energy=-66.55180358886719 stress="-0.01731346733868122 0.013295360840857029 0.18989728391170502 0.013295184820890427 0.2955136299133301 0.1268501728773117 0.18989698588848114 0.12685005366802216 1.1362749338150024" pbc="T T T"
Eu       0.25380921       1.51618452       8.93530566      -0.01152978      -0.01269105      -0.04163640
Cu       2.41105437       3.63653727       9.59358681      -0.00885502      -0.00843228      -0.08546877
Eu       1.23153214       0.49099796       1.61054282       0.00357189       0.00032639       0.01367780
Eu       1.74071877       0.99248812       5.04398264       0.00581046       0.00246429       0.02686451
Cu       3.48318793       2.70426119       2.89468339       0.01112916       0.01057748       0.04826876
Cu       3.87615901       3.09017825       5.52080314      -0.02338643      -0.02378503      -0.15324670
Eu       2.81606822       2.04656919      12.31667948      -0.02410824      -0.02034384      -0.14772497
Cu       2.05123837       3.28141994       7.13771791       0.01139552       0.01578924       0.09529996
Cu       0.57235502       3.81615252      11.12415108       0.03091596       0.02579956       0.18156354
H        3.06965106       0.30759085       0.06311956       0.00505645       0.01029527       0.06240235
