17
Lattice="5.21288604532569 0.00102669301292367 0.0011322464143669528 -0.0010419970158308755 5.208343399736247 -0.00030412659234095254 -0.0013408854245619648 0.0004675320793294567 7.274724784778513" Properties=species:S:1:pos:R:3:forces:R:3 sample_seed=85000 sample_index_within_seed=0 benchmark_method=GBSA-TCL dft_verified=F structure_index=0 total_energy=-146.18841552734375 stress="-0.01982448808848858 4.423718200996518e-05 -0.0003801393904723227 4.420393815962598e-05 0.005605663172900677 0.0002551925426814705 -0.0003807558387052268 0.0002541454741731286 -0.012167596258223057" pbc="T T T"
Mn       3.77980224       2.68874136       3.36891039       0.00369943       0.02877140       0.00655572
Mn       2.61852771       1.36247069       5.15062519       0.00011983      -0.00017868      -0.01233634
Mn       2.62022053       1.36222221       1.63114331      -0.00117617      -0.00043009       0.00728813
Mn       2.61861343       3.96630011       1.66691903       0.00051174      -0.00010402       0.00637928
Pt       0.01206450       1.36169670       5.20442216       0.00015614       0.00040897      -0.00980952
Mn       2.61835541       3.96654432       5.09384837       0.00017076       0.00035403      -0.01056674
Mn       1.29197513       2.60164060       7.06296860      -0.00524682      -0.01650423       0.00456093
Mn       1.45875631       0.03540024       3.36887695      -0.00431460      -0.02685895       0.00625617
Mn       3.78062872       0.03610861       3.36847780       0.00276446      -0.02838420       0.00764825
Mn       3.94411654       2.60187096       7.06402804       0.00664994      -0.01644781       0.00397065
Mn       1.29281039       0.12322849       7.06328699      -0.00653675       0.01573950       0.00474795
Mn       1.45822361       2.68841885       3.36922712      -0.00387161       0.02789598       0.00539228
Mn       3.94502163       0.12320031       7.06463065       0.00614452       0.01794177       0.00304905
C        2.61794247       3.96668206       7.01996707      -0.00095913      -0.00000909      -0.01064647
Pt       0.01364638       1.36209012       1.61393559      -0.00127277      -0.00087830       0.00720303
Mn       0.01113793       3.96648896       1.63594541       0.00295585      -0.00158943      -0.04678065
Pt       0.01179744       3.96588964       5.19166130       0.00020504       0.00027306       0.02708842
7
Lattice="4.642590212852079 0.0005799773094787368 1.1199344816830812 2.184687031578238 4.096055043475249 1.1208564681027193 -0.17830249527292547 -0.10863234155714695 10.914956726046979" Properties=species:S:1:pos:R:3:forces:R:3 sample_seed=85001 sample_index_within_seed=0 benchmark_method=GBSA-TCL dft_verified=F structure_index=0 total_energy=-52.9774284362793 stress="-0.03673480823636055 -0.0026307839434593916 -0.009133782237768173 -0.002630428411066532 -0.03514057397842407 -0.004769148305058479 -0.00913367047905922 -0.0047691925428807735 -0.013817248865962029" pbc="T T T"
Eu       2.78177182       0.70668563       6.21233791       0.00727957       0.00440636      -0.03010651
Eu       2.16675200       3.12214659       8.75596232      -0.00836672      -0.00464000       0.03017752
Pt       1.99076259       0.23106653       9.48851927       0.00032633       0.00094408      -0.00260813
Eu       3.65516735       4.01690421       2.58658701      -0.00014497      -0.00040222       0.00224193
Pt       2.95755820       3.59762650       5.47997728      -0.00056445      -0.00017215       0.00070163
In       4.09019660       1.49092535      10.96495014      -0.00190043      -0.00172385       0.01403622
In       5.50028583       2.33849916       5.12329493       0.00337061       0.00158773      -0.01444276
19
Lattice="3.813083508040382 0.006485972312090532 -0.004131304924553311 -0.016566533439032166 10.029927506298407 0.18365025409666783 0.010728932416841652 0.11180293569606137 10.01028036043311" Properties=species:S:1:pos:R:3:forces:R:3 sample_seed=85002 sample_index_within_seed=0 benchmark_method=GBSA-TCL dft_verified=F structure_index=0 total_energy=-110.7759017944336 stress="-0.0016918658511713147 -4.195759174763225e-06 6.705106443405384e-06 -4.244488536642166e-06 -0.00014164460299070925 -0.0009419833077117801 6.611547178181354e-06 -0.000942101760301739 0.00023752918059471995" pbc="T T T"
Gd       2.67819516       7.71429888       0.88717647       0.00013318       0.00050579      -0.02433728
Li       2.69096685       0.67314334       1.32940680      -0.00050443      -0.00410782       0.02301369
Gd       2.69614760       2.78904975       9.24183330       0.00005549      -0.01483828      -0.00923931
Li       2.69208426       3.43376666       6.22493073       0.00030351       0.04037484      -0.02656758
Li       2.69053447       5.78976758       8.72693968       0.00018487       0.00662563      -0.01170660
Gd       2.69311296       1.18386423       4.27181381       0.00037078       0.00843781       0.02398259
Au       0.78196887       2.42491245       1.87666752       0.00036159      -0.03139133       0.00085232
Au       0.79419605       0.22580484       9.61197910      -0.00007743       0.01541046       0.03474256
Au       0.77587728       5.08396251       0.45475962       0.00046255      -0.02151882      -0.02469944
In       2.68303275       9.58306238       7.62997969       0.00068627       0.02112293       0.04447012
Au       0.78933333       1.70472155       6.80975669      -0.00093650       0.03070099       0.00409692
Au       0.77093754       9.40911249       2.69236570       0.00054857      -0.01566801       0.00573355
Mg       2.68595983       4.50115920       2.51153357      -0.00045180      -0.03270569      -0.01923129
Gd       2.68613958       6.52320793       5.59728005      -0.00024310       0.00573073      -0.01891709
Au       0.77614950       6.54185219       3.12131023       0.00072466      -0.02920280      -0.02385228
Au       0.77567448       8.91619194       5.47809230      -0.00066811       0.00934714       0.04150930
Au       0.78058456       7.48368626       8.23735515      -0.00003472       0.01050119       0.03192274
Au       0.78292358       3.89624428       4.51594255      -0.00036025      -0.03591762      -0.01932701
Au       0.78486845       4.61424293       7.47366139      -0.00055515       0.03659293      -0.03244589
11
Lattice="5.512118614500234 0.0005404591671612102 -1.6359408098613655 -0.21610894702020048 7.391685774111515 -0.7179264959427186 0.004186283016878867 -0.16331650665286665 10.100074167263976" Properties=species:S:1:pos:R:3:forces:R:3 sample_seed=85003 sample_index_within_seed=0 benchmark_method=GBSA-TCL dft_verified=F structure_index=0 total_energy=-102.73246765136719 stress="0.008106029592454433 -0.005600874312222004 0.0030546761117875576 -0.005600867327302694 0.010185036808252335 -0.012014312669634819 0.0030547077767550945 -0.012014324776828289 0.010593423619866371" pbc="T T T"
Li       0.49480284       1.95142833       3.12805225       0.00675105       0.00129840       0.02363304
Eu       4.24206573       3.24233266       5.64582006      -0.00988808       0.01921681      -0.01917677
Eu       3.56729424       0.19467986       3.37436812       0.00108859      -0.00196553       0.00681777
Li       5.20538103       2.73271541      -1.19122700      -0.00137901       0.01010047      -0.00485481
Eu       1.01926853       5.07982273       4.90118044       0.00086543      -0.00595796      -0.00116665
Gd       1.46630524       1.24468024       6.40558302      -0.00198454       0.01477598      -0.02072790
Gd       2.48316498       0.92342058      -0.26057842       0.00966102      -0.02109122       0.03097659
Eu       4.43361973       6.97907738       6.30324121      -0.00087837      -0.00677762       0.00044318
Eu      -0.04886027       6.14705529       1.30720849      -0.00164853      -0.01421787      -0.00153949
Eu       2.09851885       4.39012734       8.53146166      -0.00197384      -0.00974793      -0.00972654
Eu       3.13279246       3.76536334       1.91820981      -0.00061371       0.01436648      -0.00467843
8
Lattice="4.780961669277527 -0.0006697784419740628 -1.1362373150493994 -2.526887998519932 4.219335830564564 -0.0029332269550350057 -0.008752271255918757 0.006300223679164534 10.573271879692395" Properties=species:S:1:pos:R:3:forces:R:3 sample_seed=85004 sample_index_within_seed=0 benchmark_method=GBSA-TCL dft_verified=F structure_index=0 total_energy=-71.38532257080078 stress="0.032342519611120224 0.006964149884879589 -0.0009724822593852878 0.006964222062379122 0.025274062529206276 0.004394064657390118 -0.0009722578688524663 0.0043940418399870396 0.021216819062829018" pbc="T T T"
Eu       2.05684957       0.91283812       7.73234418       0.00112440       0.00095794       0.00759448
Eu      -2.11791146       4.13877447       0.80974970      -0.00626449      -0.00462876      -0.04700639
Eu       3.38233528       1.70533016       2.68171863      -0.00527845      -0.00299202      -0.02177956
Pt       1.26009073       0.43317261       4.37536885       0.00663365       0.00463074       0.03572662
Eu       1.44614141       3.41291671       5.16133752       0.00591953       0.00315308       0.02966438
Pt      -0.02088667       2.53764723       9.61936532      -0.00173878      -0.00098056      -0.01152205
Pt      -0.65737413       2.15213952       6.93894890      -0.00452736      -0.00311977      -0.02290352
Pt       2.70670721       1.29860351      -0.15087405       0.00413147       0.00297934       0.03022593
14
Lattice="7.065263011892555 0.005104399061321677 -3.1894692707405676 -2.7307314080502896 7.2536730932446805 -0.00479519848016871 -0.019751732075428803 0.04207994982814163 8.5073387998104" Properties=species:S:1:pos:R:3:forces:R:3 sample_seed=85005 sample_index_within_seed=0 benchmark_method=GBSA-TCL dft_verified=F structure_index=0 total_energy=-127.04788208007812 stress="0.0037774688098579645 -0.0005574845126830041 -0.0004908946575596929 -0.0005573476082645357 0.004002279136329889 -0.0011154618114233017 -0.0004907440743409097 -0.0011153372470289469 0.003427778137847781" pbc="T T T"
Eu       2.23983835       3.00019080       4.16676557       0.00215956      -0.00022472       0.00541428
Eu       1.96928881       5.62523384       0.47035699       0.01709578       0.00580603      -0.02267569
Eu       2.14309512       0.24821027       6.89298001      -0.00482560      -0.00799697      -0.00073872
Eu       4.85111388       0.09581376       3.87263659      -0.00846849      -0.00220348       0.01542575
Eu       0.02246379       1.54750696       1.71395507       0.01007250       0.01419123      -0.00399057
Eu      -0.56729538       3.28852512       6.85635372      -0.00898519       0.01319680       0.00306059
Eu       4.48074896       5.17674932      -2.49334622      -0.01971684      -0.04386669       0.01352900
Eu       4.10436617       2.38529269       0.66426166       0.02733571      -0.01510128      -0.01212464
Au      -0.18498707       0.83585087       4.77295358       0.00014392       0.03858831      -0.03166092
Pt       1.34075320       5.34459637       5.92660675      -0.00928561      -0.00443015      -0.00849582
Au       4.09490158       5.09289824       2.76086642       0.00964710       0.01666285       0.01684705
Eu      -0.88371961       5.56060940       3.78672850       0.01993310       0.03460728       0.00072493
Pt       2.50874125       0.02022932       1.46486844      -0.02142394      -0.01592164       0.01480553
Pt       4.45075097       2.24551711       5.99761144      -0.01368193      -0.03330760       0.00987909
9
Lattice="4.117600801895388 0.005245950502091332 -0.004311707853380193 -0.012476600167814248 6.788327458596468 -3.9791500013648413 0.007548180412555037 -0.04269995929196415 7.706690843678724" Properties=species:S:1:pos:R:3:forces:R:3 sample_seed=85006 sample_index_within_seed=0 benchmark_method=GBSA-TCL dft_verified=F structure_index=0 total_energy=-104.0084228515625 stress="0.014865617267787457 -4.438285395735875e-05 -0.0002011096803471446 -4.449560583452694e-05 0.014478779397904873 0.0011639379663392901 -0.0002016062062466517 0.0011634515831246972 0.015965836122632027" pbc="T T T"
Gd       1.52416801       4.84674952       3.14905621      -0.00095490      -0.00574092       0.02041475
Gd       3.58635246       1.81857862       2.88766490      -0.00037298       0.04037973      -0.02514604
Pt       1.52856648       2.65875109       5.00410197       0.00006459      -0.00251114       0.00147329
Gd       3.59100747       0.70905355       6.12361359      -0.00010990      -0.00909699      -0.01997252
Gd       1.52302774       3.07017773       0.11833540       0.00021283      -0.01991120      -0.00581530
Pt       1.52720569       0.38381901       1.11991571       0.00033143      -0.00726743       0.00365543
Gd       3.57747994       5.24088214      -1.70490189      -0.00030118       0.01526444       0.01691002
Pt       3.58091998       4.62823350       1.24008244       0.00107052      -0.02476653       0.01634260
Pt       1.51876689       6.53757028       0.12118207       0.00005960       0.01365004      -0.00786211
4
Lattice="3.878439859921009 -0.0005469107471324814 0.0033249588560739798 0.0013790306448596193 6.129396852746475 0.001977623517584844 -0.0023173582104506125 -0.006003747596306048 6.524688442581946" Properties=species:S:1:pos:R:3:forces:R:3 sample_seed=85007 sample_index_within_seed=0 benchmark_method=GBSA-TCL dft_verified=F structure_index=0 total_energy=-32.37971496582031 stress="-0.013160201720893383 0.0004470853309612721 0.0008920966065488756 0.00044705739128403366 0.005123145412653685 0.0024350425228476524 0.0008920966065488756 0.002435071859508753 0.017730504274368286" pbc="T T T"
Li       0.60249672       5.04036900       3.44630714       0.00058723      -0.00010619      -0.00499286
Eu       0.60501811       1.97087103       5.59103071      -0.00172816       0.00031299      -0.00581610
Eu       2.54529647       1.97752582       2.42359346      -0.00006504      -0.00113472       0.03049358
Eu       2.54315059       5.04122322       0.19019349       0.00120597       0.00092793      -0.01968461
12
Lattice="4.422122011512141 -0.0006062588052116421 0.0010467853532045673 0.001113390347540595 8.131177827557709 0.008197127169086637 -0.0018129427489585667 -0.007734070360416191 7.6682952326285685" Properties=species:S:1:pos:R:3:forces:R:3 sample_seed=85008 sample_index_within_seed=0 benchmark_method=GBSA-TCL dft_verified=F structure_index=0 total_energy=-99.1387939453125 stress="0.0037808013148605824 -9.598513770470163e-07 1.970627408809378e-06 -8.89206830834155e-07 0.001636216533370316 -1.312388803853537e-06 2.0404145288921427e-06 -1.4055743804419762e-06 0.005117915570735931" pbc="T T T"
Eu       1.27870078       0.07410383       0.86521307      -0.00002336      -0.00006198      -0.04419000
Pt       3.48911707       6.19703111       7.22519903      -0.00002910      -0.02767888      -0.00234437
Eu       3.48941127       4.13552078       4.70398430      -0.00002260      -0.00006278      -0.04419506
Pt       3.48850278       2.06889189       7.22102764       0.00002106       0.02766030      -0.00214918
Pt       1.27835929       6.19861496       5.94431910      -0.00003125      -0.02766110       0.00215038
Pt       1.27889199       6.13864753       3.39044696       0.00003093       0.02766737      -0.00213834
Eu       1.27924997       4.13972132       0.79306900       0.00002301       0.00005724       0.04419216
Eu       3.48884855       0.06995895       4.62364009       0.00002234       0.00006595       0.04419371
Pt       3.49025624       6.13963202       2.11061308       0.00002946       0.02767453       0.00236058
Pt       3.48975716       2.13659353       2.10660528      -0.00002021      -0.02766694       0.00213383
Pt       1.27774498       2.07047564       5.94014767       0.00001842       0.02767930       0.00234890
Pt       1.27839288       2.13560905       3.38643884      -0.00001868      -0.02767302      -0.00236260
8
Lattice="4.120472830026109 -0.007475661988686052 0.005924607426439289 -2.048484329206473 6.613014404548613 0.009806636173053523 -0.014085890212637422 -0.01755449387004941 9.949106834400089" Properties=species:S:1:pos:R:3:forces:R:3 sample_seed=85009 sample_index_within_seed=0 benchmark_method=GBSA-TCL dft_verified=F structure_index=0 total_energy=-70.46707916259766 stress="0.020557545125484467 7.915054993645754e-07 0.00018406379967927933 8.326709348693839e-07 0.017885534092783928 0.003952847793698311 0.00018407893367111683 0.003952983766794205 0.02656954899430275" pbc="T T T"
Eu      -0.46267936       5.64204151       3.33099617      -0.00106555      -0.02045447      -0.00091169
Eu       1.58030197       1.10407854       8.29859314       0.00074620       0.02167578       0.00040438
Eu      -0.46871710       1.98595191       1.47455248       0.00078616       0.00917633       0.00911418
Eu      -0.47143051       1.97847010       5.17056528      -0.00129541       0.01141335      -0.00694855
Eu       1.59807606       4.77826613       0.20513874       0.00083117      -0.00938983      -0.00848956
Eu       1.59078409       4.76925030       6.45919080      -0.00013249      -0.01179953       0.00591032
Cu       1.59294282       3.37859463       3.33008017       0.00001466       0.03654701      -0.00164966
Cu      -0.47560156       3.36838686       8.29816366       0.00011526      -0.03716861       0.00257058
3
Lattice="3.6838324145938675 -0.0020139073675959516 -0.9978011192821008 -0.26644336355642423 3.6738716599378516 -1.0091768039508753 -0.0048672916702147614 -0.0007469344180847155 7.2093751926094995" Properties=species:S:1:pos:R:3:forces:R:3 sample_seed=85010 sample_index_within_seed=0 benchmark_method=GBSA-TCL dft_verified=F structure_index=0 total_energy=-25.506092071533203 stress="0.012005722150206566 0.019749708473682404 0.02084517665207386 0.019749850034713745 0.021576963365077972 0.0008433645125478506 0.02084512822329998 0.0008434073533862829 -0.0013387587387114763" pbc="T T T"
Eu       1.86939789       1.09145126       1.86840881      -0.01106485      -0.00798257      -0.02022879
Au       0.34231700       3.41703400       3.52061319       0.00300620       0.00095457      -0.00043324
Eu       2.76941940       2.06798255       5.18358015       0.00805866       0.00702799       0.02066201
9
Lattice="4.440935692105152 -0.0013672967550726577 -0.00019217135444568023 2.2229108102225954 6.970848655070206 -0.4069503228506943 -0.0003308044391031858 -0.06320582783226912 9.067163795077995" Properties=species:S:1:pos:R:3:forces:R:3 sample_seed=85011 sample_index_within_seed=0 benchmark_method=GBSA-TCL dft_verified=F structure_index=0 total_energy=-70.49929809570312 stress="-0.0272821132093668 0.00033182703191414475 -0.0006146878586150706 0.00033185025677084923 -0.00497996574267745 -0.009283452294766903 -0.0006143854116089642 -0.00928309466689825 -0.019295377656817436" pbc="T T T"
Eu       2.77608012       6.05705480       4.56873584      -0.00115101      -0.00710415      -0.00141951
Eu       0.55375175       0.10637711       1.57168708      -0.00014778       0.01680786      -0.01871003
Au       4.99592382       2.49829176       8.48754540      -0.00084695      -0.01709262       0.00409407
Eu       4.99489616       2.99273324       5.19752299       0.00085132       0.00291042      -0.00337764
Au       4.99597522       5.20539449       2.62532783       0.00181258       0.00525911      -0.00875944
Eu       2.77592279       3.25995934       1.61759942      -0.00156382       0.01671388       0.00104735
Eu       2.77449762       0.61200400       7.50895796      -0.00015383      -0.00440019      -0.01340207
Au       2.77351698       1.07533406       3.93361566       0.00132708       0.02211539       0.03081706
Pb       2.77570872       4.64477621       7.52710043      -0.00012754      -0.03520966       0.00971016
11
Lattice="3.7862232418445614 0.00034800916522755964 -1.062573412745782 -0.4742833396419052 5.982477596529406 -1.6879475637411456 0.009829213826690471 0.03223950647516361 7.313306872256081" Properties=species:S:1:pos:R:3:forces:R:3 sample_seed=85012 sample_index_within_seed=0 benchmark_method=GBSA-TCL dft_verified=F structure_index=0 total_energy=-77.18701171875 stress="0.024271797388792038 -0.006148916203528643 -0.001425058231689036 -0.006149743217974901 0.01406934205442667 -0.016147306188941002 -0.0014250653330236673 -0.016146931797266006 0.03308311104774475" pbc="T T T"
Fe       1.38994916       1.83590324       2.05339408      -0.00399993       0.04513264      -0.01759319
Pt       1.49622620       4.51381862       2.43070456       0.00689078       0.01869959       0.03467174
Pt       0.66752976       2.39858322      -0.51971272      -0.00436763      -0.02038961      -0.02822289
Mn       0.04725037       5.68668362       4.54685782      -0.00041533      -0.00087385      -0.00113434
Fe       2.95464466       3.52191587       0.35211678       0.00459009      -0.04173148       0.01607786
Pt       2.24431746       4.06196154       5.09804101       0.01057676       0.01731841       0.04433193
Pt      -0.10945614       2.95985743       3.98700337       0.00865777       0.01928568       0.02975556
Pt       3.57639904       0.19536844       2.56579282      -0.00381740       0.01525947      -0.01207706
Pt       0.76849081       5.16331704      -0.16018855       0.00450171      -0.01753948       0.01075945
Pt       2.11049724       1.32885289       4.62015872      -0.01246458      -0.01634920      -0.04172987
Pt       2.84890894       0.84489282      -0.02539561      -0.01015220      -0.01881212      -0.03483918
9
Lattice="5.2523164088725505 -0.04133104075291073 -2.6025932666282197 -0.8989989317156871 6.354651252256498 -1.844462736462874 -0.1565951835299021 0.01701983208708398 7.866767762963431" Properties=species:S:1:pos:R:3:forces:R:3 sample_seed=85013 sample_index_within_seed=0 benchmark_method=GBSA-TCL dft_verified=F structure_index=0 total_energy=-53.061241149902344 stress="-0.0009139533503912389 0.0007203485001809895 0.00093171774642542 0.0007203530985862017 -0.0025051773991435766 -0.0007265036692842841 0.0009317614021711051 -0.0007265587337315083 -0.000894221942871809" pbc="T T T"
Eu       3.05024945       0.14162799       1.44262947      -0.02871983       0.02688274      -0.00387838
Pb       0.50801987       1.91581350       2.87655093      -0.01502541       0.00649889       0.00454674
Eu       3.33311844       3.73635064       2.03301016       0.01059407      -0.00086285       0.01240734
Pb       0.06017912       5.10881740       2.01599369      -0.01312551      -0.00744579       0.01156058
Pb       1.34019532       4.60186172       4.90808448       0.02805654       0.00759204       0.00187802
Ag       4.28408534       5.51289651      -3.36554157       0.01135767      -0.01991591       0.00657189
Ag       0.17453917       0.59040599       6.36201152       0.02018103      -0.01641184       0.03126201
Ag       0.92136832       3.11584898      -0.24417200      -0.00917414       0.02940985      -0.03841038
Eu       3.23318368       1.74470449      -2.27553678      -0.00414439      -0.02574712      -0.02593786
11
Lattice="3.9919310350424566 0.0024357184326840096 0.00046119392063189823 -1.99810972218832 3.4559181916579345 0.0006059529356177233 -0.0010508591239549753 -0.004152355360673923 13.802327040292932" Properties=species:S:1:pos:R:3:forces:R:3 sample_seed=85014 sample_index_within_seed=0 benchmark_method=GBSA-TCL dft_verified=F structure_index=0 total_energy=-95.03922271728516 stress="0.033599793910980225 -0.0010451512644067407 5.502832937054336e-05 -0.001045344746671617 0.03209810331463814 -0.00016332008817698807 5.81382482778281e-05 -0.00016923912335187197 0.039428871124982834" pbc="T T T"
Gd       2.64162231       1.30392369      12.97875969       0.00148356      -0.00350598      -0.02018809
Mn       2.64209471       1.30467629       9.89506886       0.00205315      -0.00152645       0.01064849
Mn       0.64495308       2.45688083       3.36893803       0.00311136      -0.00054458      -0.01315046
Mn       0.64681051       0.15083554      10.64943167      -0.00188024       0.00053024      -0.02806515
Mn       0.64656210       0.15182037       4.12100820      -0.00409715       0.00400776       0.01636904
Mn       2.64173075       1.30586382       2.59980403       0.00106836      -0.00160475      -0.02828830
Mn       0.64529153       2.45532952      11.36954827      -0.00176945       0.00205930      -0.04948330
Al       2.64157355       1.30546699       4.99178705       0.00281074      -0.00267385       0.03185248
Al       0.64661089       0.15231813       1.73019770       0.00025917       0.00426373      -0.00727689
Gd       0.64716379       0.15154514       7.56656425      -0.00157319       0.00101370       0.04623032
Mn       0.64553817       2.45602666       9.17130072      -0.00146642      -0.00201895       0.04135203
8
Lattice="4.002599371942293 -0.0024430276571096167 -0.0005635411792067678 0.003295990620090579 6.811694299035037 -3.9485244576686123 0.0012267527117368869 -0.028356471322563286 7.80408335439438" Properties=species:S:1:pos:R:3:forces:R:3 sample_seed=85015 sample_index_within_seed=0 benchmark_method=GBSA-TCL dft_verified=F structure_index=0 total_energy=-51.82249069213867 stress="-0.01579831726849079 0.0002040791732724756 -5.736175808124244e-05 0.00020403225789777935 -0.022877177223563194 -0.0017809729324653745 -5.740352935390547e-05 -0.001781051978468895 -0.0247530285269022" pbc="T T T"
Tl       0.66831574       0.87430563       2.87837571       0.00045960      -0.00210021      -0.04368558
Eu       2.67209504       4.89872657      -0.70521416      -0.00049128       0.04209491       0.02312315
Cu       0.66977847       5.32714906      -3.07841559       0.00066996      -0.00348543      -0.00142266
Eu       2.66956158       0.85173445       0.16428515      -0.00005243       0.00179317      -0.04980221
Gd       2.67172576       3.59510660       3.20601908      -0.00018413      -0.03568750       0.02049532
Tl       0.67191146       5.88986276       1.87661958      -0.00033179      -0.04100415       0.02383846
Cu       0.67037543       3.12497192       0.97259165      -0.00061012      -0.00001244       0.00387166
Tl       0.66974117       2.52556236       5.73140472       0.00054017       0.03840166       0.02358190
8
Lattice="4.207765823311112 0.0020395317492568283 0.001286947707330971 -2.105795901514496 3.6426349947355465 -0.0024875052172989138 -0.0027041904343017946 0.0045512178370848855 12.82747035378063" Properties=species:S:1:pos:R:3:forces:R:3 sample_seed=85016 sample_index_within_seed=0 benchmark_method=GBSA-TCL dft_verified=F structure_index=0 total_energy=-67.873291015625 stress="-0.015501320362091064 0.00011666167847579345 3.988637763541192e-05 0.00011665481724776328 -0.015469584614038467 -6.839350680820644e-05 4.0333452488994226e-05 -6.856383697595447e-05 -0.008652948774397373" pbc="T T T"
Eu       1.52652589       1.73288319       7.71398608      -0.00086177       0.00194515       0.02770803
Pt       1.52607304       1.73390704       4.82719478       0.00035931      -0.00038230      -0.01927018
Pt      -0.57928820       2.94898130       9.79664934       0.00084160      -0.00093189      -0.01391776
Gd       3.63113920       0.51974942       3.05474028      -0.00006139      -0.00011411      -0.02459475
Si       3.62986822       0.52176520       9.77282689      -0.00003048      -0.00026391      -0.00577614
Au      -0.57749795       2.94662182       1.15711093      -0.00002075      -0.00044895       0.04396303
Si      -0.57841716       2.94734088       5.08297019      -0.00029129       0.00096014      -0.01198330
Eu       1.52472162       1.73696196      11.90595934       0.00006482      -0.00076410       0.00387109
20
Lattice="5.397745723076387 -0.007212995021231064 -0.00036540203709450956 0.007345659574872155 5.695111548372998 -0.0023804676343426824 0.000601367583337492 0.0029584168989443696 7.759363810121995" Properties=species:S:1:pos:R:3:forces:R:3 sample_seed=85017 sample_index_within_seed=0 benchmark_method=GBSA-TCL dft_verified=F structure_index=0 total_energy=-187.5633544921875 stress="0.011133825406432152 -0.008212055079638958 0.0003742975532077253 -0.008208593353629112 0.008440663106739521 0.00031346059404313564 0.0003748530289158225 0.0003148105461150408 0.0007649634499102831" pbc="T T T"
Gd       1.66736427       1.48497597       7.21483774       0.00266092       0.00433481      -0.00828982
Gd       1.46644715       0.72298353       3.33498853      -0.00590647      -0.00265361       0.00472916
Fe       4.26557509       1.09851875       1.39465015      -0.00101068       0.00081077      -0.00011354
Fe       4.26544569       1.09998408       5.27411698       0.00089950       0.00461848       0.00383033
Gd       4.36866355       3.56647979       3.33319568       0.00215883      -0.00388967       0.00637316
O        0.51107696       2.22921737       4.83666446       0.01088640      -0.01752832      -0.00617620
Fe       1.56967867       3.95002355       1.39363931       0.00023435      -0.00010676       0.00152381
O        2.62891284       5.67381601       5.71002154      -0.01240049       0.01791840       0.00645876
O        3.67550508       1.32110114       3.33472676      -0.00999181      -0.02856208      -0.00657395
Fe       1.56955392       3.95190149       5.27358027       0.00309087      -0.00620192      -0.00155260
O        4.85615659       0.87890036       7.21406335       0.00451604       0.03037365       0.00467557
Gd       4.16868973       4.32902665       7.21289111      -0.00069408       0.00239779      -0.00495715
O        5.32684292       5.07058030       4.83486031      -0.00878007      -0.02170775      -0.00552580
O        2.62913488       5.67173924       0.95533351      -0.01343572       0.01613804      -0.00282863
O        0.97835629       3.73222665       7.21304429      -0.00131799       0.02763735       0.00780401
O        2.16140379       4.17068687       3.33363293       0.00164707      -0.02679838      -0.00497195
O        0.51121283       2.22778267       1.83241683       0.01067264      -0.01575017      -0.00053170
O        3.21022350       2.82511679       5.71134412       0.01259940       0.01936357       0.00610770
O        3.21017480       2.82316160       0.95610275       0.01149518       0.01858035      -0.00092381
O        5.32690603       5.06916870       1.83095137      -0.00732345      -0.01897433       0.00094274
6
Lattice="4.872240483305853 -0.0014459335173849762 2.783187457250315 1.6391631211030402 4.5881586545036015 2.7985666348469387 0.011709598155792991 0.004613942844370285 5.615547187941889" Properties=species:S:1:pos:R:3:forces:R:3 sample_seed=85018 sample_index_within_seed=0 benchmark_method=GBSA-TCL dft_verified=F structure_index=0 total_energy=-29.198909759521484 stress="0.00771717494353652 0.020090926438570023 -0.04667606204748154 0.02009071595966816 0.017059922218322754 -0.011631499044597149 -0.046676430851221085 -0.011631626635789871 0.011505356058478355" pbc="T T T"
Au       5.43455629       1.82147234       8.25567199       0.01994136       0.02507125       0.03177177
Au       6.25702826       4.11176357       9.65822084      -0.01236311      -0.01936167      -0.02172537
Au       5.43001769       1.82077316       5.44193054      -0.00275463      -0.00167312      -0.01188996
Eu       2.98876137       0.10003844       4.05121122       0.00111072      -0.00118164       0.01259632
Au       2.99760000       3.54052019       4.05358231       0.00058008      -0.00017614      -0.00236387
Au       2.99359881       1.82413929       6.86082340      -0.00651445      -0.00267867      -0.00838889
16
Lattice="4.39504342706027 -0.004278806660391585 0.003666233571216797 -2.191499055782228 4.401256588409369 -2.185075559710789 -0.007610802687550047 -0.013441441912358798 8.795491796555813" Properties=species:S:1:pos:R:3:forces:R:3 sample_seed=85019 sample_index_within_seed=0 benchmark_method=GBSA-TCL dft_verified=F structure_index=0 total_energy=-109.78955841064453 stress="-0.024778226390480995 -0.003318054834380746 -0.0029568250756710768 -0.003319860901683569 -0.02682935819029808 -0.00596819119527936 -0.002957007847726345 -0.005965725984424353 -0.028114432469010353" pbc="T T T"
Mg       1.80432009       3.97428591       2.09597910      -0.00070404      -0.01257688       0.00285321
Mg      -0.39609025       3.95809454       4.27473732       0.00519088      -0.02194139      -0.02554215
Mn       1.80019090       3.98952369       6.50599187      -0.00147355       0.00801896       0.00115884
Mg      -0.39116105       4.00931281      -0.07751232      -0.00326422       0.02518493       0.03513993
Mn       1.80318893       1.81903314      -0.08379206       0.00467848       0.02039576      -0.01212590
Mg      -0.39472319       1.79742990       2.09728253      -0.00400096       0.00130217      -0.00244602
O       -0.39735097       3.97063475       6.49249580      -0.00146022      -0.02123533       0.00670529
O       -0.39427183       1.87027047      -0.04734372       0.00354029       0.03155693       0.03530660
O        1.80112557       3.97423234       4.23914049       0.00727914       0.00040904      -0.03032235
Mn       1.80092509       1.75445263       4.27403251      -0.00370545      -0.01926790      -0.01005001
O       -0.39381823       3.92329587       2.10055411       0.00170890      -0.00780251       0.01506673
O        1.80154908       1.77554961       2.08975457       0.00403096      -0.00499454      -0.00818492
O       -0.39642670       1.78862653       4.23234946      -0.00739447      -0.00001023      -0.01376033
Mn      -0.39939613       1.76717924       6.48241050      -0.00072456      -0.00328811      -0.00400440
O        1.80620057       4.06447330      -0.04035003      -0.00296925       0.02354966       0.01219473
O        1.79799413       1.70299552       6.49654291      -0.00073207      -0.01930066      -0.00198919
4
Lattice="4.177754754176452 -0.002247282211099805 -0.0015184630894280351 0.0031356366068243592 4.177374304313255 -0.0015924207651929433 0.0010909348842165982 0.001141662050954723 4.176582597080771" Properties=species:S:1:pos:R:3:forces:R:3 sample_seed=85020 sample_index_within_seed=0 benchmark_method=GBSA-TCL dft_verified=F structure_index=0 total_energy=-30.73438835144043 stress="-0.0012438041158020496 0.012906486168503761 -0.006215115077793598 0.012907699681818485 -0.008898376487195492 -0.0064992113038897514 -0.006214695051312447 -0.006498966831713915 -0.024777641519904137" pbc="T T T"
Eu       3.56494544       1.48420825       3.14289292       0.00282889       0.00460428       0.00753187
Pt       1.47885067       3.57565612       3.14297462      -0.00741322      -0.00969063       0.00329386
Pt       1.47501722       1.48498229       1.05659188       0.00335380       0.00154224      -0.00726007
Pt       3.56601696       3.57185068       1.05444705       0.00123050       0.00354411      -0.00356571
12
Lattice="4.044395234792191 0.0055629736980713634 0.002160170551324367 -2.0319107895987596 6.8997469044428 -0.09708046060388395 -0.006719483004751431 0.16739409687160234 12.26848116984759" Properties=species:S:1:pos:R:3:forces:R:3 sample_seed=85021 sample_index_within_seed=0 benchmark_method=GBSA-TCL dft_verified=F structure_index=0 total_energy=-117.95343017578125 stress="0.007799533661454916 -1.535170667921193e-05 1.1560469829419162e-05 -1.5927662389003672e-05 0.0066820178180933 -0.000507552525959909 1.1834018550871406e-05 -0.0005069950129836798 0.006903302855789661" pbc="T T T"
Se       1.15569427       3.60931573       2.54877224      -0.00010812       0.00951560      -0.01943615
Gd       1.15636743       2.45209405       5.07419075      -0.00094282       0.03244010      -0.01706126
Eu       1.15983259       1.92655283       0.04656872       0.00016474      -0.01654544       0.00556763
Gd       1.15005340       6.20828210       6.99660603       0.00012035       0.01172830      -0.00038336
Gd      -0.86970053       5.64721936       2.97886375       0.00044830       0.00503669       0.03646526
Gd       1.14888261       5.87473871      10.62645266      -0.00007051      -0.02444971       0.02172571
Se      -0.87102376       3.97354857      11.20397396      -0.00012564      -0.03213657      -0.01286438
Eu       3.17682811       2.82816025       8.51105653      -0.00043506      -0.02688381      -0.03856526
Se       1.15225404       6.86081486       0.92456167       0.00006495      -0.01104323       0.01660563
Se       1.15712659       0.61348406       9.28215282      -0.00000396       0.00266367      -0.00009807
Se       3.18127937       0.46646550       4.47115191       0.00105144       0.02792897      -0.00040478
Se      -0.86906286       4.40711989       5.90140158      -0.00016366       0.02174565       0.00844902
12
Lattice="4.610798800225846 0.00010560452128468159 0.0007087238272962096 -8.555623474682958e-05 7.906183937890084 -0.004075250421171274 0.00018438572955968978 0.005583011305265151 9.435218099577394" Properties=species:S:1:pos:R:3:forces:R:3 sample_seed=85022 sample_index_within_seed=0 benchmark_method=GBSA-TCL dft_verified=F structure_index=0 total_energy=-115.52732849121094 stress="-0.00135790032800287 -2.7328858323016902e-06 -7.594945054734126e-05 -2.644602091095294e-06 0.019700516015291214 0.00041726240306161344 -7.594988710479811e-05 0.00041734217666089535 0.023221174255013466" pbc="T T T"
Eu       0.28287392       1.91521314       4.50580585       0.00037080      -0.02050574      -0.01841148
Eu       2.58735315       6.19488165       9.22255137       0.00072648       0.02197375      -0.02045332
Eu       0.28237609       4.90022434       2.25990655       0.00101450      -0.01412292       0.02944914
Eu       2.58843918       3.20875326       6.97846243      -0.00121512       0.01159871       0.02886249
Eu       2.58885831       7.15960806       3.61983713      -0.00069245       0.01261714      -0.03084752
Eu       0.28292348       0.95009700       8.34116813       0.00035453      -0.01292489      -0.03482879
Pt       0.28421517       0.09514530       1.84860763      -0.00082540       0.00280487      -0.00610115
Eu       2.58878693       2.23681139       1.37595225      -0.00042640       0.02470660       0.02177495
Eu       0.28281501       5.86986085       6.09261358       0.00044925      -0.02144460       0.01974560
Pt       2.58782346       4.05853654       4.03289053       0.00000547      -0.00577236       0.01058708
Pt       2.58874365       0.10672004       6.56690685      -0.00053443      -0.00389189      -0.00719691
Pt       0.28206086       4.05143670       8.75213461       0.00077274       0.00496122       0.00741980
10
Lattice="3.856693036137246 0.0001357311535259728 -0.8824585577428291 -0.7374514840694438 8.411932513232292 -3.224215038458388 0.04627084860563769 0.08546695018274465 9.088940791697881" Properties=species:S:1:pos:R:3:forces:R:3 sample_seed=85023 sample_index_within_seed=0 benchmark_method=GBSA-TCL dft_verified=F structure_index=0 total_energy=-96.76643371582031 stress="0.014597455970942974 -0.0007141631213016808 0.0002918479440268129 -0.0007141378591768444 0.02309969998896122 -0.0028608296997845173 0.0002918761456385255 -0.0028606888372451067 0.016134312376379967" pbc="T T T"
Eu       1.45542381       3.09001314       5.63000483       0.00575059       0.01438665       0.02397583
Eu       0.16240919       4.24915708      -0.04529335       0.00156723      -0.04605097       0.01139691
Eu       2.64169343       2.03337726       2.00207648       0.00322902       0.02243872      -0.00666282
Eu       2.89269364       5.52796916       3.02666145      -0.00076471       0.01642578      -0.00164748
Eu       3.79888888       0.71753935       6.98515550      -0.00424914      -0.02305754      -0.01250747
B        2.04647712       2.16852704      -0.69052574       0.00229200      -0.02526343       0.01521367
Eu       0.42941670       7.98585951       1.15018193      -0.00575952       0.01365224      -0.03112743
O        2.16977812       0.82225845      -0.15405146      -0.00066967      -0.00386757       0.00519711
Gd       1.60997643       7.03001407      -2.60181080       0.00127846      -0.00043392       0.01101579
B        3.22106119       1.36080464       4.47854751      -0.00267434       0.03177003      -0.01485407
4
Lattice="3.8058834879479617 -0.0006033917184091022 -1.1474837179004782 -0.7458688192587881 5.267270680589996 -2.477879677165557 0.0638190414596715 0.08362558922554583 7.102257775126079" Properties=species:S:1:pos:R:3:forces:R:3 sample_seed=85024 sample_index_within_seed=0 benchmark_method=GBSA-TCL dft_verified=F structure_index=0 total_energy=-34.16332244873047 stress="-0.004324369598180056 -0.0050580864772200584 -0.0038231576327234507 -0.005058039911091328 0.02251351810991764 -0.014280596747994423 -0.0038231071084737778 -0.01428050734102726 -0.006074597593396902" pbc="T T T"
Eu       0.52279937       3.40123878      -1.72940427      -0.00436266      -0.00493471      -0.01654286
Eu       3.08986286       1.26471612      -0.09894720       0.00421038       0.00596945       0.01453768
Eu      -0.43636136       5.01094887       1.96925708      -0.00024254      -0.00045129       0.00171091
Ag       1.83762506       2.38035299       2.63412147       0.00039483      -0.00058343       0.00029425
10
Lattice="4.23625273524702 0.0019837749690965506 -0.0019196574883162947 -2.1222489116842134 7.432375768560474 -0.005795938718475521 0.0033926902764188057 0.007387760300381222 7.929692167607883" Properties=species:S:1:pos:R:3:forces:R:3 sample_seed=85025 sample_index_within_seed=0 benchmark_method=GBSA-TCL dft_verified=F structure_index=0 total_energy=-64.11676788330078 stress="-0.021555032581090927 -0.0007685988093726337 -0.000548299984075129 -0.0007684584124945104 0.0021141336765140295 0.0004884268273599446 -0.0005482258857227862 0.000488359306473285 0.0028569400310516357" pbc="T T T"
Au       3.06716206       1.14121634       4.20823674      -0.00016218       0.00224904       0.00099175
Li       0.94687488       5.81819275       4.20498412      -0.00106499       0.02498302      -0.00039401
Au       0.94418836       5.59507226       0.24016234       0.00023435      -0.00834128       0.00023876
Au       3.06480733       1.37992350       0.24250217       0.00017803      -0.00266951       0.00095566
Li      -1.17353487       4.13325171       0.24601280       0.00189653      -0.02501635      -0.00126736
Eu      -1.17369230       6.96211656       2.12809008       0.00072008      -0.00432855       0.00629298
Eu      -1.17148005       6.96750263       6.28169340      -0.00022288      -0.00590995      -0.00665708
Eu       0.94876114       2.99345863       6.09664426      -0.00056141       0.00467968       0.00567380
Au      -1.17051651       4.35658876       4.20648252      -0.00128590       0.00700096       0.00017262
Eu       0.94675042       2.98623020       2.32038015       0.00026838       0.00735282      -0.00600713
11
Lattice="5.4649982689875385 -0.0004020342814378549 -1.6229498298854113 -0.7038366908397162 6.833875889371656 -2.374786799193231 -0.05651723673534593 0.005642637310946993 9.826941461299826" Properties=species:S:1:pos:R:3:forces:R:3 sample_seed=85026 sample_index_within_seed=0 benchmark_method=GBSA-TCL dft_verified=F structure_index=0 total_energy=-98.3298110961914 stress="0.009677715599536896 -1.354932101094164e-05 0.0011002678656950593 -1.3446710909192916e-05 0.009703190065920353 -0.0002629926602821797 0.001100180670619011 -0.0002627450739964843 0.013369805179536343" pbc="T T T"
Eu       3.43959224       1.19255204       1.73487356      -0.01121892      -0.00025671      -0.03553453
Eu      -0.09684763       5.74331700      -0.16441045       0.00270514       0.02387085       0.01138250
Eu       2.23869189       0.86457265       7.71482597      -0.00019186       0.01922318      -0.00270860
Eu       3.70129376       6.57932777       2.62069684      -0.00348454      -0.02494903      -0.01406708
Ni       4.50569483       6.16344472       5.33029204      -0.00016812       0.00055404      -0.00037263
Eu       2.01022237       4.63421694       6.93787043       0.00243687      -0.01834887       0.00507089
Pb       3.00570125       4.15402474       0.27468731       0.00046546      -0.00919480       0.00251402
Eu       0.86760608       4.29714049       3.09085531       0.01242117       0.00233519       0.04010990
Pb       1.30257524       1.33967297       4.55244751      -0.00238856       0.00330695      -0.00279155
Eu       4.29033011       3.34560484       4.60186872       0.00166197      -0.01526642       0.00688158
Eu       0.01774102       2.14052659       0.23060205      -0.00223864       0.01872553      -0.01048455
16
Lattice="5.589196180575401 -0.007667977257929762 -0.10530920853102126 -1.9272290754614099 6.092612657726476 0.806723712233139 -0.010544479674337045 -0.04392646422723246 9.818559996785169" Properties=species:S:1:pos:R:3:forces:R:3 sample_seed=85027 sample_index_within_seed=0 benchmark_method=GBSA-TCL dft_verified=F structure_index=0 total_energy=-115.67185974121094 stress="-0.017843948677182198 -0.0013147154822945595 8.496268856106326e-05 -0.0013148137368261814 -0.015049321576952934 0.0015803275164216757 8.504123252350837e-05 0.001580575481057167 -0.015833387151360512" pbc="T T T"
Gd       2.20040323       0.08012774       2.25517528      -0.02127306       0.00522923      -0.00929175
Li       1.56681596       5.15971125      10.03380123       0.01119104      -0.00554969      -0.01307812
Li       1.78043928       4.13087093       4.68563544       0.01609737       0.01824414       0.01396636
Gd       0.51744549       1.56348319       9.16494089      -0.00427000      -0.00510487      -0.00421117
Li       4.14709138       4.38055721       9.99025080       0.00229162      -0.00831919      -0.00847528
Gd       3.30942060       2.87280169       7.13437070       0.01442863      -0.02962923      -0.01287079
Li       4.97464440       0.33699187       4.63815760      -0.00003328       0.02207387       0.00135923
Pd       3.10568745       5.77226114       2.46015296      -0.00682554       0.01464063      -0.00903270
Li       2.40327433       3.38209622       2.05162930      -0.01971143       0.00196845       0.01388052
Pd       3.32749342       1.74088715       9.91840331      -0.00124469       0.00355755       0.00389681
Pd       0.49538957       2.38338182       6.34166975       0.01751032       0.00128380       0.01065114
Pd      -1.20129048       4.30515638       4.89980522       0.00559212       0.01032951       0.01395313
Eu      -0.45564379       2.51616417       2.80376597      -0.00447958      -0.00746977      -0.00059646
Gd       0.16220870       5.60188626       7.09908139       0.01337193      -0.00953066       0.01234971
Pd       2.59705115       1.75502560       4.44722646      -0.02831092      -0.00651035      -0.01447824
Pd       2.95608639       5.90425367       7.95553333       0.00566550      -0.00521330       0.00197761
12
Lattice="4.036861554798274 -0.0013519357026079552 -0.00014120414622586925 0.00203346727431083 8.098409034756136 -0.0013278233659171996 0.00039061781906764737 0.002073613095215652 13.280251275077521" Properties=species:S:1:pos:R:3:forces:R:3 sample_seed=85028 sample_index_within_seed=0 benchmark_method=GBSA-TCL dft_verified=F structure_index=0 total_energy=-89.16581726074219 stress="-0.0004920890787616372 -0.0007747726049274206 4.0553801227360964e-05 -0.000774807995185256 0.003818005323410034 0.00038400408811867237 4.0544869989389554e-05 0.0003840226854663342 0.013466211967170238" pbc="T T T"
Eu       3.81043354       7.41811211       1.81664129       0.00012671       0.00465450      -0.04297958
Eu       1.79146161       1.34192855      12.43512254      -0.00084191      -0.00187616      -0.02177727
Eu       3.80852826       3.37687339       1.82656148       0.00091141      -0.00411952      -0.01126206
Li       1.79263298       5.39366415       3.80003021      -0.00121822       0.01238283       0.00282228
Eu       3.81035097       7.42334017       5.79053365       0.00015713      -0.00032009       0.03231416
Eu       1.79192976       5.40891228       8.45166252      -0.00015638       0.00133962       0.01748131
Eu       3.81048787       3.37621959       5.77113885      -0.00079560      -0.00344052       0.01312529
Li       1.78993723       1.35292638       3.79732547       0.00065086      -0.00939034       0.00349312
Eu       1.79118242       5.41142868      12.42763614       0.00043368       0.00011702      -0.01738739
Eu       1.78983944       1.33985863       8.44786888       0.00097785       0.00190107       0.02123317
Li       3.81070875       3.37185004      10.43723571      -0.00120045      -0.00076463       0.00332345
Mg       3.81005831       7.42753786      10.43956514       0.00095490      -0.00048377      -0.00038650
8
Lattice="4.259694128640336 -0.011375877986104982 0.005430021225644283 -2.1161356382446486 6.492249185371952 0.01453326988043132 -0.012391454783622715 -0.020554351948313367 9.619428886174227" Properties=species:S:1:pos:R:3:forces:R:3 sample_seed=85029 sample_index_within_seed=0 benchmark_method=GBSA-TCL dft_verified=F structure_index=0 total_energy=-78.59355163574219 stress="-0.0035720006562769413 -0.001605510013177991 -0.00016739900456741452 -0.0016055479645729065 -0.007976624183356762 0.0010932638542726636 -0.00016760684957262129 0.0010931501165032387 0.002876868238672614" pbc="T T T"
Eu       0.71584893       0.00114615       5.08404552      -0.00072058      -0.01832627       0.00828429
Eu       0.72346874       3.82421142       3.83971102       0.00044253       0.01924272      -0.00835589
Eu       0.72758231       3.83374666       0.28589241       0.00111337       0.01849815       0.01048358
Eu       2.85153354       0.88018289       2.05359767      -0.00148083      -0.03919590       0.00391878
Eu       0.71148817      -0.00634861       8.63789808      -0.00114655      -0.01915003      -0.01047056
Eu       2.84718164       2.93531207       6.87576598       0.00164459       0.03806980      -0.00380865
Pt       0.72383669       5.09895285       6.87419385      -0.00107860      -0.02130346       0.00145425
Pt      -1.40090550       5.21943766       2.06456354       0.00122609       0.02216502      -0.00150575
4
Lattice="3.8773322003217476 0.00035838835818052795 -1.398421142138978 -0.0005394278573630232 4.746511127317537 -0.00024778311195449056 -0.0027423234849271064 -0.0007317380846661539 6.065622716033096" Properties=species:S:1:pos:R:3:forces:R:3 sample_seed=85030 sample_index_within_seed=0 benchmark_method=GBSA-TCL dft_verified=F structure_index=0 total_energy=-30.40135955810547 stress="-0.06075328215956688 2.8705888325930573e-05 0.012742867693305016 2.8871996619272977e-05 0.04720672219991684 0.00023546528245788068 0.012742983177304268 0.0002354759635636583 -0.03292962908744812" pbc="T T T"
Eu       1.78641916       1.41457122       1.05280828      -0.00618871      -0.00186643      -0.00761082
Eu       0.71040860       3.78521614       4.14866195       0.00621031       0.00074574       0.00881615
Au       3.50321374       3.78803456      -0.25374173       0.01655130      -0.00226830       0.03547663
Au       2.87094791       1.41148005       4.05741965      -0.01657291       0.00338898      -0.03668196
10
Lattice="4.071919354705927 0.0005908631171620788 -0.6009876351709402 -0.08259540980724238 3.9100757598930858 -0.5557582304225266 -0.08214589970807874 -0.07019381343039226 13.541973835939816" Properties=species:S:1:pos:R:3:forces:R:3 sample_seed=85031 sample_index_within_seed=0 benchmark_method=GBSA-TCL dft_verified=F structure_index=0 total_energy=-66.59479522705078 stress="0.0058694579638540745 0.0002088441397063434 0.0019726394675672054 0.000208938421565108 0.00896211713552475 0.0014782483922317624 0.0019725949969142675 0.0014780987985432148 0.018742958083748817" pbc="T T T"
Eu       0.19810773       1.47383948       8.65297423       0.00361777       0.00373247       0.01880957
Cu       2.37313775       3.60729807       9.29901002       0.00310956       0.00172698       0.01879915
Eu       1.22739288       0.47958318       1.52641941      -0.00337870      -0.00165104      -0.01255502
Eu       1.72364634       0.97098876       4.88803538      -0.00523124      -0.00463533      -0.03212786
Cu       3.48770953       2.69879094       2.75432261      -0.00592757      -0.00629733      -0.04702350
Cu       3.85869552       3.06446682       5.26018630       0.00139961       0.00164603       0.01306199
Eu       2.75599047       1.98777755      11.89412807       0.00840534       0.00745746       0.04978245
Cu       2.02066403       3.25962601       6.90216040      -0.00145825      -0.00186773      -0.00258105
Cu       0.52613171       3.79208006      10.87999582       0.00149516       0.00210712       0.01291751
H        3.09213754       0.31164569       0.06913868      -0.00203165      -0.00221863      -0.01908322
