12
Lattice="4.029169082641602 0.0 0.004348111804574728 -2.0336150800728494 6.79844193524587 -0.19010686874389648 0.0 0.0 12.161444664001465" Properties=species:S:1:pos:R:3 pbc="T T T"
Se       1.14835647       3.51239937       2.52989721
Gd       1.15304169       2.29874723       5.05078119
Eu       1.15233636       1.91996660       0.00394750
Gd       1.14160571       5.96971577       6.89959022
Gd      -0.87284357       5.54512840       2.68674466
Gd       1.14271009       5.65536289      10.35068738
Se      -0.86673519       3.81887601      11.22814342
Eu       3.16778187       2.75456358       8.49555329
Se       1.13866999       6.79420537       0.82198929
Se       1.15779071       0.44470819       9.10908342
Se       3.16923401       0.31516534       4.44112311
Se      -0.86970758       4.21667395       5.76639931
