7
Lattice="3.6112409021936 0.021074587089066406 -0.022548507149768724 -0.036168826547248414 6.23194560961338 0.08534083227462815 0.03812854999673456 0.025240522299137987 6.044335986955696" Properties=species:S:1:pos:R:3:forces:R:3 structure_index=0 total_energy=-45.83319091796875 stress="-0.008302150294184685 -0.0026351450942456722 0.013497243635356426 -0.002634816337376833 -0.013870014809072018 0.002627252833917737 0.013497121632099152 0.0026272572576999664 -0.010830803774297237" pbc="T T T"
Se       0.25695635       0.82747924       0.63243908       0.00740677       0.03629479      -0.01329695
V        2.08605048       1.91389788       5.14366218      -0.00368023       0.00194700      -0.00349982
Ti       0.26212851       5.03617666       5.19541695       0.00197885      -0.00281913       0.00932389
Se       2.05218630       6.07881842       3.67974455       0.00046114       0.00047867      -0.00681183
V        2.06695176       1.91061765       2.12153123      -0.00378994       0.01220370      -0.00032911
Se       0.26398231       2.96814068       3.63840250       0.00391962      -0.03656264       0.00920648
Se       2.04624972       3.96932213       0.63727058      -0.00629620      -0.01154239       0.00540734
