12
Lattice="4.386716365814209 0.0 -0.0032204408198595047 -0.001509717875570787 7.1276424716428295 0.08180888742208481 0.0 0.0 7.868413925170898" Properties=species:S:1:pos:R:3 pbc="T T T"
Eu       3.59642462       6.66384866       1.63888508
Eu       3.59503817       3.13524778       0.53657954
Eu       1.40386530       2.85278231       5.42512425
Mg       1.40296923       6.41237192       4.48829514
Ga       1.40199499       5.44770974       7.44547813
Pt       3.59586110       1.40169783       3.86542151
Pt       3.59593102       5.12055529       6.00576799
Pt       1.40216623       4.52628189       2.24245472
Ga       1.40188243       1.83259814       2.43721518
Pt       1.40331414       0.93745825       7.78945055
Ga       3.59619445       4.10770727       3.56711236
Ga       3.59710315       0.52738257       6.32025613
