4
Lattice="3.64871455483486 -0.0002978144433622968 -0.9956063401805277 -0.8322130810673586 5.806126231521592 -3.047964165868974 0.02986721241953149 0.06830472741631931 7.292505381001424" Properties=species:S:1:pos:R:3:forces:R:3 structure_index=0 total_energy=-34.931976318359375 stress="0.035833459347486496 -0.001922959927469492 -0.0030230367556214333 -0.0019229502649977803 0.03388858214020729 -0.0069668833166360855 -0.0030229920521378517 -0.006966864224523306 0.026953911408782005" pbc="T T T"
Eu      -0.41085748       5.24287445       0.11992539       0.00265954      -0.01721649       0.01011357
Eu       0.84491068       2.83911752       4.72658634      -0.00560939      -0.00407379      -0.02265156
Tm       1.82858627       2.36362315       1.13945807      -0.00320792       0.00689213      -0.00793193
Eu       2.28318394       5.80776453       2.81482409       0.00615777       0.01439816       0.02046992
