11
Lattice="6.565502643585205 0.0 -0.8350770473480225 0.3573532345835699 6.2258977963308295 -3.4503862857818604 0.0 0.0 9.209925651550293" Properties=species:S:1:pos:R:3 pbc="T T T"
Lu       2.90459863       5.30382329      -2.95777163
Eu       4.16555348       2.01287305       2.69885599
Eu       5.33055382       4.46946799      -0.25189579
Eu       6.17575593       2.92808995       5.56782740
Lu       1.20490391       3.63702826       3.25255005
Eu       2.30124322       2.52282047      -0.61289623
Si       0.77886321       0.04806523       7.54027535
Eu       6.15149705       0.68576823       0.22371800
Eu       4.48385815       6.03783409       3.11876996
Eu       1.42111664       0.19677825       4.35495846
Si       2.95219605       2.65840613       5.40776565
