16
Lattice="5.232246398925781 0.0 0.00046382815344259143 -1.6479373493888547 4.954688341774271 -0.009898564778268337 0.0 0.0 6.126092910766602" Properties=species:S:1:pos:R:3 pbc="T T T"
Mn       0.26083027       4.21353116       2.56958040
O        2.09618415       2.99692089       2.46757402
Mn       2.88258825       4.16416463       0.98452558
O        0.15499006       0.63496272       2.70214021
O        2.87682438       0.33732021       0.92740312
Mn       1.06287238       1.74069758       4.15973034
Li       1.06220061       1.70384430       1.01457378
Li       2.89153265       4.22800885       4.13356280
Li       3.66844698       1.69846409       5.64116911
Mn       0.26800779       4.17005108       5.63405244
Mn       3.68653166       1.74757477       2.57900034
O       -0.51491248       2.95984393       4.20320722
O       -0.76672199       2.95140671       1.10967068
O        2.72997230       0.65191169       4.03535037
O        1.82868086       2.97119975       5.54553605
O        0.28004550       0.31008853       5.74310481
