19
Lattice="6.342727020389059 -0.012377373321728315 0.8172548207288113 0.7196401098156966 6.302228963788987 0.8159261041172786 -0.0115516602160857 -0.009337773737511648 6.396044034826872" Properties=species:S:1:pos:R:3:forces:R:3 structure_index=0 total_energy=-153.2255401611328 stress="-0.006545166485011578 -0.015937823802232742 -0.016230715438723564 -0.015938468277454376 -0.002538305474445224 -0.013157439418137074 -0.016231248155236244 -0.013157430104911327 -0.010421322658658028" pbc="T T T"
Fe       4.54599870       1.91169997       4.58302991      -0.01486780       0.00314269       0.01936288
Fe       1.53355550       6.05391340       6.98189713       0.03107447       0.03049731       0.02464083
Fe       6.20841721       0.04812684       4.57963023       0.00279099      -0.02203378       0.02764857
Fe       5.67904353       4.07133033       5.28085362      -0.01907254      -0.02423553      -0.02486213
Fe       0.75925940       2.52672719       2.89003675       0.01357047       0.00999085       0.01210763
Fe       1.94723131       1.91266538       6.86732801       0.01812197      -0.01033255      -0.03182250
Fe       6.41836474       1.90549040       6.13329550       0.00001897       0.00106020      -0.00666248
Fe       2.50628718       4.08174063       1.68177834      -0.02750684      -0.02463472      -0.02934453
Dy       2.48381396       4.06256569       4.85380413      -0.03037013      -0.02020217      -0.02908979
Fe       1.74492136       0.05518452       2.11687578       0.01630682      -0.01703832       0.00276462
Fe       5.74632696       1.30758921       2.16170998      -0.00819580      -0.01634248      -0.01021884
Fe       3.25385514       1.91595830       2.52588092      -0.00895842       0.00455515       0.00299849
Fe       6.78425318       5.06185890       3.34108444      -0.00258982      -0.00247238       0.01109806
Fe       4.76128541       3.77733734       2.93438707      -0.01409604       0.01955812       0.00163144
Fe       6.62868729       3.76357860       7.68446773      -0.00295980       0.02151340      -0.02728632
Dy       4.73067436       6.06215531       7.40951068       0.02465960       0.02880023       0.02863632
Fe       4.72094719       6.05451405       4.18534155       0.01597838       0.01698379       0.03439950
Fe       2.14109429       0.93378600       4.46486629      -0.02402920      -0.02349772      -0.03044797
Fe       4.35251968       2.88962416       6.98352155       0.03012469       0.02468784       0.02444606
