4
Lattice="4.010921633316427 -0.010830726393031028 -1.5522686852884788 -1.097226723860043 5.1855862145825204 -2.8551991104252425 -0.014300971912121445 -0.2074446968895586 5.918158692502206" Properties=species:S:1:pos:R:3:forces:R:3 structure_index=0 total_energy=-12.213125228881836 stress="0.017796821892261505 0.007795695681124926 0.003666891250759363 0.00779573293402791 0.020524706691503525 0.023976145312190056 0.0036669555120170116 0.02397606335580349 0.022679293528199196" pbc="T T T"
Pb       1.39766655       0.04810701       5.10280643      -0.00462346      -0.02049091      -0.01859019
Pb       3.15013444       3.34436508      -2.32034484       0.01370760      -0.00584131       0.04251076
Bi       0.24672140       1.80975524       2.10536215       0.00110655       0.00582565       0.00461534
Zn       2.62788466       0.07098782       2.31177945      -0.01019068       0.02050656      -0.02853592
