16
Lattice="2.908709764480591 0.0 0.5105841159820557 1.0803704910873784 7.291697021484035 2.355344295501709 0.0 0.0 8.442808151245117" Properties=species:S:1:pos:R:3 pbc="T T T"
Fe       2.25251805       2.62325631       3.29566412
Mn       2.46237854       7.08007154      10.46742906
Fe       0.40297239       1.16453887       5.26712878
H        1.00265761       4.50900534       1.82136916
O        1.15428207       5.76746170       9.42437814
O        2.93798190       4.07344070       7.81069343
H        2.93427820       3.08762742       7.86672869
Fe       1.48712062       5.33620880       7.53702512
O        0.78810052       1.03123258       3.05023400
O        2.96942896       1.09441651       7.63705915
Mn       3.34732801       6.88249126       5.50752504
O        2.99323534       6.92264248       7.52408027
O        1.85225138       5.68764974       5.46207096
O        1.92266836       2.40908085       5.13920800
O        3.67095219       6.96055378       3.69000426
O        0.92204570       3.58732528       2.30797249
