5
Lattice="3.123793719999009 0.03761812695778613 1.6808058325818327 1.1953305769632094 5.571769356688442 1.4016999117401903 -0.4283888808924601 -0.32805726365006005 4.55574023852526" Properties=species:S:1:pos:R:3:forces:R:3 structure_index=0 total_energy=-31.508934020996094 stress="0.008762773126363754 -0.007632321212440729 0.03287917375564575 -0.007632100023329258 -0.011247741989791393 0.021082261577248573 0.03287900611758232 0.02108258195221424 -0.038102906197309494" pbc="T T T"
Cu       0.76902618       4.50234287       2.90181665       0.00006417      -0.00162899       0.00114976
Cu       0.56303598       0.31421110       3.37832613      -0.00139502       0.00167355      -0.00193607
U        1.63096637       2.77821165       5.08732641       0.00593920      -0.02440116      -0.01622425
Zn       3.03954555       5.37702670       2.40323888       0.00067782      -0.00001098       0.00063339
U        2.82420141       2.07595370       2.87345660      -0.00528617       0.02436762       0.01637717
