17
Lattice="5.370122909545898 0.0 -3.0533275604248047 -2.558556598605321 5.631446657899279 -1.3017874956130981 0.0 0.0 6.145985126495361" Properties=species:S:1:pos:R:3:forces:R:3 sample_seed=85000 sample_index_within_seed=0 benchmark_method=FT0 dft_verified=F structure_index=0 total_energy=-145.482177734375 stress="7.8312859535217285 0.9666069746017456 0.5921554565429688 0.9666062593460083 8.253211975097656 1.0513726472854614 0.5921535491943359 1.051373839378357 7.629344940185547" pbc="T T T"
Mn       1.50893331       0.61016981       4.48481922      -0.28114909       0.09060016      -0.00899465
Mn      -0.31467069       4.57122308       0.93509962      -0.13629240       0.02767496      -0.02616104
Mn       3.78104631       1.09535564       3.02696410       0.54794228      -0.01670284       0.37416947
C       -0.40401408       1.46984538       4.40770767       0.09090857       0.14456412      -0.15729833
Mn      -0.94889798       3.40666316       4.67009329       0.15410382       0.23235331      -0.44433457
Mn       2.71124288       2.99669126      -1.44258680      -0.04526234       0.19617043       0.33106166
Mn       2.47612563       5.54494731      -1.38251723      -0.11281011       0.00609710       0.03054771
As       2.00262109       2.66412014       2.35838484      -0.19384369      -0.07066091       0.09289490
Mn       0.68475387       2.36051029      -0.00462522       0.06450842       0.02312917      -0.18470174
Mn       2.19872986       4.46478349       0.73674014       0.22649741       0.00928164      -0.09587330
Mn       2.98809701       1.26818491       0.64345387      -0.04119137      -0.36386353      -0.18596560
C        3.48103260       1.02004529      -1.20559387      -0.09573121      -0.10438299      -0.15509078
Mn      -0.41244524       2.36600069       2.37292921      -0.21932533      -0.09006459       0.29391307
C       -1.29671097       4.21010890       2.71399872      -0.01361732       0.13103046      -0.10739128
Mn       0.79163777       4.58568937       3.23530789      -0.01859704       0.06198473       0.27492359
C        0.95783915       4.14040969      -0.86867626       0.16541493      -0.36220559      -0.05532577
As       0.70116265       0.00269200       0.74874771      -0.09155553       0.08499420       0.02362686
7
Lattice="4.607089519500732 0.0 -1.265939712524414 -0.3150984230143088 4.60562344541559 -1.238017201423645 0.0 0.0 8.760893821716309" Properties=species:S:1:pos:R:3:forces:R:3 sample_seed=85001 sample_index_within_seed=0 benchmark_method=FT0 dft_verified=F structure_index=0 total_energy=-66.815673828125 stress="0.9824478030204773 0.3071148991584778 0.29183706641197205 0.30711522698402405 1.1254903078079224 0.46910667419433594 0.2918367385864258 0.469107061624527 1.2061892747879028" pbc="T T T"
Eu       2.86890247       3.80188264       6.66947439       0.02278648       0.01835220       0.10863639
Eu       1.38404559       2.20707764       1.45975727      -0.02572019      -0.01781574      -0.10864563
As       4.00819045       0.07931902       2.01083703       0.04788817       0.07063296       0.09378251
Eu      -0.17866753       3.00530671       4.69873255       0.01561433       0.00173991      -0.00322840
As       0.56076476       1.32523098       7.35722130      -0.05146494      -0.07416394      -0.09905615
Eu       2.28313044       0.70171756       4.68098371      -0.00166918      -0.01304648       0.01085515
O        2.12588656       3.00257500       4.06423916      -0.00743471       0.01430109      -0.00234379
19
Lattice="6.7776031494140625 0.0 -3.213864326477051 -4.057577385681157 4.467014813148344 -0.5699982643127441 0.0 0.0 5.970738410949707" Properties=species:S:1:pos:R:3:forces:R:3 sample_seed=85002 sample_index_within_seed=0 benchmark_method=FT0 dft_verified=F structure_index=0 total_energy=-169.585205078125 stress="1.3925716876983643 -4.792276859283447 -0.9240981936454773 -4.7922773361206055 -8.433510780334473 -3.810753107070923 -0.9240941405296326 -3.8107528686523438 0.21299679577350616" pbc="T T T"
Fe       0.85504784       3.58895138       1.25674720       0.57890558       0.48741922       0.27639440
Mn      -0.95549191       4.18775476      -0.93016912       0.13997555       0.16669747       0.38677818
Mn      -1.50071123       3.20841012       2.66417914      -0.54451382       0.23107737      -0.39325073
C        3.70883565       1.72209564      -0.40116297       0.31531858      -0.04336995      -0.08038794
Mn       2.89214113       3.51600820       0.03737230      -0.04564980       0.08952147      -0.14613572
Mn       1.00705907       3.08709750       3.48953491       0.54338241       0.54497457       0.46111077
Mn       5.45689499       0.74220664      -0.81786335      -0.81806433      -0.15931286      -0.61767155
Mn       1.49894611       0.87924567       2.45786269      -0.07694680      -0.24407950      -0.25768250
Mn       3.95150768       1.43035463       1.45200394       0.19362958      -0.03668009       0.24225195
C        1.59746668       0.12113636       4.36661223       0.42025751      -0.31536740      -0.10829636
Mn      -3.57732051       4.27167270      -0.33672976      -0.41164312       0.07271242       0.29529005
Mn      -0.77022509       2.16346401       0.34334589       0.27104670      -0.14329943      -0.10225695
Mn       3.60533771       2.10696035      -2.25760529       0.03621608       0.08015504       0.04233541
C       -0.02393675       2.08835233       2.18200739       0.24772665       0.07676889      -0.20410503
C        2.44561512       2.55461739       2.08693016       0.15871635      -0.06894912      -0.15211193
C       -2.02793303       3.73240575       0.77530394       0.06295823       0.01793425      -0.20671803
Mn       1.68490716       1.68127705      -0.56997631      -0.49350241      -0.01316711       0.06226704
C        5.01662091       0.55902392       3.09105321      -0.05207954      -0.18008265       0.83650142
C        0.91563611       3.48278706      -0.60187976      -0.52573347      -0.56295252      -0.33431244
11
Lattice="5.089111804962158 0.0 0.8791784644126892 -1.8965157021546022 5.205925424728706 -2.7167322635650635 0.0 0.0 5.174733638763428" Properties=species:S:1:pos:R:3:forces:R:3 sample_seed=85003 sample_index_within_seed=0 benchmark_method=FT0 dft_verified=F structure_index=0 total_energy=-86.62110137939453 stress="0.5603880882263184 0.14224928617477417 -0.07134220004081726 0.14224785566329956 2.404550790786743 -0.3835239112377167 -0.071342334151268 -0.3835253417491913 1.2798960208892822" pbc="T T T"
Mn       1.42350243       2.65980732      -0.70666029       0.15534927       0.17250782       0.25179276
Mn      -0.93625222       3.94913402      -0.79322497      -0.02143233       0.11257894       0.00557282
Mn       2.83079868       1.02245998       0.58886813       0.19541657       0.06937665       0.10798683
Mn       1.72061460       5.00298011       0.09376170      -0.03833342      -0.29660255       0.06566161
C        0.96099647       4.29288048      -1.60797751       0.25443387       0.01836215      -0.00283405
As       3.74619621       2.14294459       3.68222724      -0.13765907       0.23807183      -0.25533575
As       0.18407832       1.10168400       0.74063762      -0.23072940      -0.03432461       0.10152826
Mn       0.48996579       3.46332196       1.84467136       0.14233369       0.35935161      -0.04703405
Mn       2.79662307       4.17931259       2.66340424      -0.06196395      -0.62216014      -0.42766461
As       1.41553851       0.38318199       3.60714980       0.06114255      -0.37185887       0.21784104
C        2.35674797       3.24711702       0.95311985      -0.31855813       0.35469705      -0.01751469
8
Lattice="3.139694929122925 0.0 -0.7465230822563171 -2.160522655987478 4.8947700384481445 -2.061073064804077 0.0 0.0 6.8688483238220215" Properties=species:S:1:pos:R:3:forces:R:3 sample_seed=85004 sample_index_within_seed=0 benchmark_method=FT0 dft_verified=F structure_index=0 total_energy=-58.84095001220703 stress="-6.840303421020508 0.2582937777042389 -0.1954093724489212 0.25829553604125977 -6.843234062194824 1.429009199142456 -0.1954093724489212 1.429013729095459 -8.447822570800781" pbc="T T T"
Mn      -0.66016795       2.25256696       1.66171285       0.07605616       1.00940478       0.32726589
Mn      -1.34847158       4.80904979      -1.15903277       0.18721627      -0.78621900       1.00316238
As       0.49201970       2.97099001      -0.43278648       0.05718269       0.04258788       0.21002442
As       1.31412202       1.26026656       2.96619699      -0.09500007      -0.05919595      -0.35881460
As       1.16825449       4.13959788       2.37415553       0.05127503      -0.14152984       0.11835729
C        2.29360563       0.62048012       0.16731123       0.10283829      -0.79106343       0.20743804
Mn      -0.05909630       2.93729743       4.15747614      -0.08299999       0.09966293      -0.25811243
Mn       1.88888785       1.11903427       5.35382551      -0.29656821       0.62635267      -1.24932110
14
Lattice="4.227294921875 0.0 -1.6942722797393799 -0.28711355662574123 5.0111756244172785 -0.6490897536277771 0.0 0.0 6.244060516357422" Properties=species:S:1:pos:R:3:forces:R:3 sample_seed=85005 sample_index_within_seed=0 benchmark_method=FT0 dft_verified=F structure_index=0 total_energy=-129.00999450683594 stress="6.831064701080322 -1.08993661403656 -0.5817590355873108 -1.0899357795715332 7.2477922439575195 -0.8083174228668213 -0.5817585587501526 -0.8083184957504272 7.606408596038818" pbc="T T T"
Mn       1.39901492       4.09404462       0.00071027       0.19529235       0.04839550       0.24267411
Mn       2.26118043       4.37281109       2.34007638       0.13925907       0.07291927       0.06074306
Mn       3.20445497       4.66353229      -1.59773746       0.12438880      -0.03697148      -0.20879868
Mn       0.85045785       0.21458567       4.75238142      -0.17604750       0.04430196       0.18252265
Mn       2.61121034       2.15980412      -0.96416908      -0.18749470      -0.05545314      -0.18004330
C        1.66547111       3.51857629       4.11643431      -0.01034811       0.13174817       0.04379860
Mn       3.44789522       1.03150632       1.17546626       0.17015691      -0.08584394      -0.15646461
Mn      -0.06266036       2.71408193       4.73442870       0.17651162      -0.01427335       0.02719435
Mn       0.80390968       1.58589062       0.63060987      -0.05892642       0.05667633       0.31947106
Mn      -0.15148372       3.53717717       2.24743045      -0.18547988       0.01513979      -0.05173185
C        2.34475556       2.73545465       1.17234196      -0.01755904      -0.15629123      -0.08202470
C        3.37218941       1.01647015       3.81886904       0.19186507       0.06801952       0.08620700
C        0.92866335       0.22336396       2.11897178      -0.20327030      -0.06966051      -0.12123353
Mn       1.75145583       1.87248737       2.95122569      -0.15834805      -0.01870704      -0.16231397
9
Lattice="2.9275925159454346 0.0 -0.0136243412271142 -0.0624204843996112 5.282902558903586 -3.042896270751953 0.0 0.0 6.110879421234131" Properties=species:S:1:pos:R:3:forces:R:3 sample_seed=85006 sample_index_within_seed=0 benchmark_method=FT0 dft_verified=F structure_index=0 total_energy=-77.60379028320312 stress="-2.796818494796753 -1.231932282447815 -0.47017785906791687 -1.2319308519363403 -0.11424821615219116 0.23794107139110565 -0.47017553448677063 0.23794357478618622 0.1451239287853241" pbc="T T T"
Mn       2.77667722       1.86130963      -0.57538124       0.00894495       0.39515054      -0.22973788
P        2.74564330       4.89369113       1.74763719      -0.02069513      -0.00443372       0.04757147
Mn       1.30001913       3.13445118       1.15682928       0.00867689      -0.02697991      -0.27475578
Mn       2.76531109       3.13274576       3.33560545      -0.01047989      -0.00896967       0.42473331
Mn       1.27505483       5.25671195      -2.52338055       0.01063427      -0.28351095       0.11265107
C        1.29998486       3.12350576      -1.30035159       0.00592941       0.03750562      -0.00870974
Mn       1.32560060       1.01234753       3.58168592      -0.00474471       0.23600286       0.08479585
P        2.78497004       1.36782291       1.73874363       0.00007833       0.03420851       0.07945345
Mn       2.75017230       4.39970816      -0.57107675       0.00165593      -0.37897339      -0.23600206
4
Lattice="3.7792558670043945 0.0 1.2362998723983765 1.0902551936064446 5.648755428839516 3.132042646408081 0.0 0.0 6.534178256988525" Properties=species:S:1:pos:R:3:forces:R:3 sample_seed=85007 sample_index_within_seed=0 benchmark_method=FT0 dft_verified=F structure_index=0 total_energy=-39.04174041748047 stress="-0.8548638224601746 -0.11797099560499191 -0.3526580333709717 -0.11797104775905609 0.07637616246938705 0.3850097954273224 -0.3526584506034851 0.3850099444389343 0.4860098361968994" pbc="T T T"
Eu       2.45029731       2.88745462       3.44376609      -0.01905613      -0.01734766       0.01618534
Eu       3.48843393       4.68093578       6.71135458       0.01158494      -0.02108322       0.00620258
Eu       1.40481382       1.11146325       6.71065093      -0.00070417       0.01924771       0.00313915
Pt       4.67488441       4.67106061       9.54902872       0.00817535       0.01918315      -0.02552705
12
Lattice="3.500917434692383 0.0 0.02222527004778385 0.02631629333872491 5.83787517930596 0.051691047847270966 0.0 0.0 6.893433094024658" Properties=species:S:1:pos:R:3:forces:R:3 sample_seed=85008 sample_index_within_seed=0 benchmark_method=FT0 dft_verified=F structure_index=0 total_energy=-100.99563598632812 stress="3.7230656147003174 0.3889353573322296 0.6976989507675171 0.3889356255531311 1.702150821685791 0.7798335552215576 0.6976988315582275 0.7798320651054382 4.307405948638916" pbc="T T T"
Mn       1.25757157       5.69062670       5.68994252       0.06741469       0.10470140      -0.08506221
Mn       3.00024342       3.80016876       4.90942468      -0.01253731       0.05804856       0.19151683
Mn       1.24059161       2.76706014       3.04005244      -0.01653649       0.19894555      -0.00396938
P        1.25646107       5.01340780       3.54708007      -0.05314976       0.04543276      -0.04548074
Mn       2.99139082       1.56194294       6.48178827      -0.07327759      -0.14020815       0.14117068
Mn       1.24793331       3.45149409       0.36688649       0.01136054      -0.06118921      -0.15372786
Mn       2.98573950       0.88209943       3.81462917       0.01157205       0.01682217      -0.21380614
Mn       1.23403464       0.53263805       1.41613448      -0.00530378      -0.02860298       0.20581517
Mn       3.00563512       4.48310716       2.24445496       0.02087865      -0.20798890      -0.03272278
P        1.24128424       2.09562632       5.17668889       0.06026295       0.07309555       0.02065362
P        3.00773935       5.15422415       0.10798692      -0.06757252      -0.03846309      -0.06962159
P        2.98973478       2.23620449       1.73381285       0.05688845      -0.02059386       0.04523443
8
Lattice="3.717534065246582 0.0 -1.6127228736877441 -0.6605303790013222 3.6411303881157857 -1.6250897645950317 0.0 0.0 4.961639404296875" Properties=species:S:1:pos:R:3:forces:R:3 sample_seed=85009 sample_index_within_seed=0 benchmark_method=FT0 dft_verified=F structure_index=0 total_energy=-71.51409912109375 stress="0.7738631367683411 1.8603042364120483 1.0786590576171875 1.8603039979934692 0.5447750687599182 1.1184591054916382 1.0786570310592651 1.118457317352295 0.40585729479789734" pbc="T T T"
Mn       1.66766773       0.73501273       1.80703345      -0.00582317      -0.00352460       0.00486113
Mn       2.10325633       3.46509376      -2.29489754      -0.00376807      -0.01873162       0.01240767
C        0.24149984       3.46878215      -1.49340952       0.01881126      -0.01424146       0.03951723
C        2.43403787       1.64042412      -1.47779142      -0.02135791       0.03123316      -0.04156883
Mn       0.57199562       1.64839666      -0.67687630       0.00578946       0.00607822      -0.00239308
C        1.33874361       2.55622683       0.99738318      -0.02111423      -0.00611936      -0.01767163
Mn       3.19460622       2.55517533       0.19061220       0.00904575       0.00630582      -0.01274604
C        3.52496031       0.73498733       1.00019468       0.01841680      -0.00100026       0.01759366
3
Lattice="3.7746176719665527 0.0 0.04458218440413475 0.03257244735990719 3.667838904088258 -0.9836307764053345 0.0 0.0 7.523362159729004" Properties=species:S:1:pos:R:3:forces:R:3 sample_seed=85010 sample_index_within_seed=0 benchmark_method=FT0 dft_verified=F structure_index=0 total_energy=-25.39904022216797 stress="0.07650239020586014 0.07105031609535217 0.08897431194782257 0.07105031609535217 0.20692001283168793 0.02338099293410778 0.08897420763969421 0.02338092215359211 0.5428517460823059" pbc="T T T"
Eu       1.27256387       1.48983306       5.81962419      -0.02254762      -0.02221689      -0.08714145
Au       3.16550810       2.86092277       3.59859034       0.00799737      -0.00424098      -0.02476787
Eu       1.26019087       0.56104801       2.29001340       0.01455026       0.02645787       0.11190936
9
Lattice="4.2095818519592285 0.0 -1.7106428146362305 -1.0350794613538314 4.962020090462111 -2.3500049114227295 0.0 0.0 6.6613569259643555" Properties=species:S:1:pos:R:3:forces:R:3 sample_seed=85011 sample_index_within_seed=0 benchmark_method=FT0 dft_verified=F structure_index=0 total_energy=-60.40284729003906 stress="2.405959367752075 0.20027686655521393 0.5795758962631226 0.20027728378772736 -1.2576159238815308 -0.6274111866950989 0.57957524061203 -0.6274099349975586 -2.303245782852173" pbc="T T T"
As       2.76564052       2.75623491      -1.87173486      -0.14037222      -0.18169403      -0.14421099
Mn      -0.46617197       2.95774854       1.98673790       0.39421397       0.28699917       0.27314162
Mn       0.91662972       2.03313767      -0.53407453      -0.09463294      -0.14046606      -0.35149735
Mn       3.23255809       4.05681548       2.84027986      -0.44453549      -0.12951192      -0.31606811
As       0.82569448       4.79880761       3.15668780      -0.21370417       0.20783207       0.04987209
As       0.70524459       0.90590534       1.61069942       0.26509276      -0.15819676       0.34390795
Mn       1.85156604       4.95923078      -1.28697914      -0.02498670       0.14303724       0.26489311
As       3.82947999       1.80303756       2.36105980       0.15311202      -0.33946571       0.23594664
As       1.61759221       3.86128566       0.92361590       0.10581271       0.31146595      -0.35598508
11
Lattice="3.382153272628784 0.0 -0.69373619556427 -0.3463392130941887 5.801284454069493 -1.641683578491211 0.0 0.0 8.73996639251709" Properties=species:S:1:pos:R:3:forces:R:3 sample_seed=85012 sample_index_within_seed=0 benchmark_method=FT0 dft_verified=F structure_index=0 total_energy=-80.28547668457031 stress="-2.136591911315918 -0.42026403546333313 -0.08052249997854233 -0.42026373744010925 -1.1286978721618652 -1.2006927728652954 -0.08052366971969604 -1.2006932497024536 -1.0246278047561646" pbc="T T T"
As       1.09392130       0.17325616       5.81750553      -0.10572033      -0.29137379       0.01402448
Mn       1.40022081       5.54776637      -1.24085419       0.11570676       0.17205769       0.19019555
Mn       2.73602222       1.90835233       5.31148709       0.07420450      -0.15437616       0.23603632
As       0.04340140       1.70504478       0.70044515       0.06022161       0.27662939       0.15689740
Mn       2.77168133       5.69266832       5.49194304      -0.07308665      -0.12696347      -0.12499523
Mn       3.08016831       3.74873158      -1.70120728      -0.02496236      -0.18807305      -0.12673166
Mn       1.04666723       3.82069639       5.71013259      -0.01474676       0.22170830      -0.24812171
Mn       1.39872328       1.92915830       7.42449787      -0.04137924       0.15600102      -0.16822627
Sb       2.25491064       0.39037647       2.88257776      -0.00515483      -0.05407882      -0.04317327
Sb       2.32638291       3.42427359       3.29648260      -0.01189997       0.03089177       0.02894671
Mn       1.77763950       3.63530526       0.58864262       0.02681722      -0.04242280       0.08514772
9
Lattice="3.1645123958587646 0.0 0.7813979387283325 1.8811617804753098 6.564701978043114 -1.0293036699295044 0.0 0.0 6.880545616149902" Properties=species:S:1:pos:R:3:forces:R:3 sample_seed=85013 sample_index_within_seed=0 benchmark_method=FT0 dft_verified=F structure_index=0 total_energy=-64.57698822021484 stress="-0.6316276788711548 0.012787346728146076 0.8500136733055115 0.012787544168531895 -0.04921921715140343 -1.4153265953063965 0.8500146269798279 -1.4153250455856323 -2.5090343952178955" pbc="T T T"
Mn       3.44583994       4.89574669       0.78122439      -0.03722850       0.09475729      -0.09862056
As       2.15543140       6.06727207      -0.84210389       0.02732103      -0.09899895       0.13566460
Mn       2.22139798       3.40067610       5.83059000      -0.00496868      -0.07807350       0.06237637
Mn       2.89663047       3.47168016       3.04689802      -0.00196729       0.18634498       0.26101887
As       1.00196069       2.35633182       3.97750292      -0.09428816       0.14541197       0.07422936
Mn       1.51010992       1.09280045       1.93776526       0.05665796      -0.01904962      -0.25708151
Mn       4.11754561       5.02291097       4.87750117       0.08170114       0.28303826      -0.34202108
As       3.41200874       2.53739721       0.98460114       0.02566278      -0.22333351      -0.20179126
As       2.92838336       5.92276558       2.82320192      -0.05289028      -0.29009694       0.36622503
11
Lattice="3.5981061458587646 0.0 0.005185582209378481 -0.3344194500395365 5.845839570776307 -3.551621675491333 0.0 0.0 6.974876880645752" Properties=species:S:1:pos:R:3:forces:R:3 sample_seed=85014 sample_index_within_seed=0 benchmark_method=FT0 dft_verified=F structure_index=0 total_energy=-83.57518005371094 stress="0.8182184100151062 -4.30623197555542 -0.008908343501389027 -4.306232929229736 -16.408079147338867 -0.6690798401832581 -0.008908702060580254 -0.6690769195556641 -9.70583438873291" pbc="T T T"
As       0.80109560       5.58967370      -0.92618544      -0.07827181       0.04746942      -0.05911423
Mn       2.64415852       4.82113671      -2.30816855      -0.30745795       0.54974991       0.59052646
As       2.77353679       2.60436936       4.45792747       0.26303455      -0.40089351       0.05229332
Mn       1.06892588       0.91843536       0.48518803      -0.09624768      -0.09823702       0.00205967
Mn       0.91289324       3.62914818       2.56980052      -0.03041989      -0.01496860       0.02062005
Mn       1.06513782       0.92273135       4.73444086      -0.07191354      -0.12603292       0.17545867
Mn       0.93835211       3.20953820      -0.89397795       0.08965041      -0.22857885      -0.02628466
Mn       2.64178419       4.81129190       0.47423336      -0.29605889       0.79712033      -0.59618020
As       2.59135182       5.69096985       2.57328586      -0.35090989       0.21728677      -0.22330001
Mn       2.84939023       1.29927530       2.59509245       0.57392579      -0.25102597       0.04285761
As       2.76603737       2.60604971       0.72779026       0.30466861      -0.49188936       0.02106322
8
Lattice="3.051586151123047 0.0 0.006969126407057047 0.021823283379706748 5.162151937347613 -0.008439580909907818 0.0 0.0 5.798110485076904" Properties=species:S:1:pos:R:3:forces:R:3 sample_seed=85015 sample_index_within_seed=0 benchmark_method=FT0 dft_verified=F structure_index=0 total_energy=-62.966461181640625 stress="-5.021440029144287 0.6410826444625854 0.29315149784088135 0.6410821080207825 -6.442932605743408 -0.30711761116981506 0.2931520640850067 -0.3071179986000061 -7.257568359375" pbc="T T T"
Mn       0.11440890       3.64610340       4.10795924      -0.00987654       0.10314298       0.21753660
P        1.63576244       2.63275713       2.72438055       0.00192969       0.56560999       0.25510466
Mn       1.62861987       1.01387603       1.22441169      -0.01483337      -0.08377667       0.05118218
P        0.10715163       2.01236873       5.65642131       0.01252931      -0.00590920      -0.16547774
P        0.11710237       4.60816666       1.99199452      -0.00300656      -0.31638867      -0.15351191
Mn       0.10172512       1.09312191       3.50845396       0.02493197      -0.25246593      -0.08111316
P        1.62413776       0.08136183       4.88101187      -0.01377954       0.04236576       0.01929740
Mn       1.63935168       3.60731407       0.60415944       0.00210503      -0.05257821      -0.14301810
8
Lattice="3.170881509780884 0.0 -0.046908266842365265 -0.008384275326804549 5.331908309719319 -0.04892289638519287 0.0 0.0 5.9276227951049805" Properties=species:S:1:pos:R:3:forces:R:3 sample_seed=85016 sample_index_within_seed=0 benchmark_method=FT0 dft_verified=F structure_index=0 total_energy=-61.45648193359375 stress="0.04263574257493019 -0.3109024465084076 -1.746241569519043 -0.31090253591537476 1.819557547569275 -1.4415664672851562 -1.746240258216858 -1.4415651559829712 0.48236244916915894" pbc="T T T"
Mn       2.80434600       3.41669510      -0.04694152      -0.02793778       0.03670128      -0.06024404
As       2.79911906       4.43555192       2.16863966      -0.07104192      -0.31087855       0.12484065
Mn       1.21574166       3.34621293       3.65137089       0.04982957       0.01371621       0.05561391
P        1.21475049       5.05719160       5.15047098      -0.05723993       0.07933322      -0.04371891
P        1.22115919       2.34347177       1.38179619       0.04871572       0.14987239       0.01635926
P        2.80611916       1.75072482       4.35652477       0.07688853      -0.12172204      -0.09779356
Mn       2.80755943       0.79934008       0.58876974       0.03129579      -0.05752768       0.04339365
Mn       1.22220694       0.76388114       3.02130983      -0.05051000       0.21050519      -0.03845100
20
Lattice="5.308921813964844 0.0 -0.8966262340545654 -1.063763802850588 6.308612965148897 -0.11389295756816864 0.0 0.0 6.256109714508057" Properties=species:S:1:pos:R:3:forces:R:3 sample_seed=85017 sample_index_within_seed=0 benchmark_method=FT0 dft_verified=F structure_index=0 total_energy=-174.06451416015625 stress="3.4160430431365967 2.7252705097198486 1.2518985271453857 2.7252726554870605 2.3770081996917725 -1.6225956678390503 1.2518980503082275 -1.6225954294204712 2.742520332336426" pbc="T T T"
C        2.81592415       2.38828690       1.77051079       0.28892729      -0.05399363      -0.24132626
Mn       3.64318192       0.89838059       2.76115239      -0.49338233       0.04794189      -0.33887154
Mn       1.48150609       6.28554962       0.06662589       0.00124621      -0.23709726       0.08601671
C       -0.33208858       6.04418445       5.75122608       0.17973083       0.25807676       0.09024276
Mn      -0.46342724       5.09089299       1.20203150       0.09419495      -0.26132664       0.01619747
Mn       1.15894330       1.34300272       1.72701769       0.42486256       0.32886136       0.29992282
Mn       1.61574742       0.13053880       4.04034016      -0.39308172       0.37631240      -0.46438146
Mn       1.60846071       3.85095911       1.20643585      -0.09467789       0.19408923      -0.63527048
Mn       2.07161481       2.76892051       3.79494386       0.02925018      -0.37856105      -0.02662370
C        2.14934224       4.01719646       5.46482255      -0.17306769      -0.28133827       0.67021602
Mn       0.21680170       4.12462612       5.24879053       0.34168807      -0.01994757       0.49480033
C        3.25417302       1.02978320       4.70290209       0.25007305       0.29437733       0.32204127
Mn       4.78052840       2.85499341       1.72554809      -0.13282853      -0.16919029       0.02523154
C        0.38711323       1.60201454       3.63603134       0.11565408      -0.40830433       0.15640157
Mn      -0.05105350       1.56709097       5.59088293      -0.07688135      -0.14274997      -0.21659751
C       -0.12357323       3.05775966       0.74405894      -0.23721358      -0.34409901      -0.07890952
Sn       3.62167794       4.83415903       2.51752251      -0.42635751       0.50924081      -0.06219719
Mn       3.26374588       2.52084164      -0.21342880       0.28215855       0.26727793      -0.10782482
C        1.09550636       5.91951414       2.01279116       0.21565932       0.06903523      -0.25530326
Mn       3.09927129       5.54765295       4.78641077      -0.19595458      -0.04860485       0.26623547
6
Lattice="4.0191330909729 0.0 1.5784587860107422 1.1935942147796652 3.858151090645307 1.4044888019561768 0.0 0.0 4.2696332931518555" Properties=species:S:1:pos:R:3:forces:R:3 sample_seed=85018 sample_index_within_seed=0 benchmark_method=FT0 dft_verified=F structure_index=0 total_energy=-53.698951721191406 stress="3.9575862884521484 1.6427788734436035 -1.1062893867492676 1.6427748203277588 5.980289459228516 -2.7510147094726562 -1.106292724609375 -2.75101375579834 4.688936233520508" pbc="T T T"
Mn       3.56673602       1.01751854       2.32262333       0.01078424      -0.02671070       0.01747614
V        2.14141023       2.93638013       2.22445947       0.05211169       0.06160640       0.07444621
C        4.15914530       2.94565848       3.02969469      -0.12050676       0.00917876       0.01187304
Mn       4.16034835       2.94729306       5.17028460       0.05296816       0.01696389      -0.03127714
Mn       0.89154461       0.57480600       2.80435244      -0.09187457      -0.21467122      -0.32226562
Mn       2.22777747       1.46037222       4.53018795       0.09651706       0.15363304       0.24974769
16
Lattice="4.390744209289551 0.0 -2.0657787322998047 -0.9841993446514511 5.414188268214285 -2.6536848545074463 0.0 0.0 7.5428876876831055" Properties=species:S:1:pos:R:3:forces:R:3 sample_seed=85019 sample_index_within_seed=0 benchmark_method=FT0 dft_verified=F structure_index=0 total_energy=-141.44920349121094 stress="10.163078308105469 5.765978813171387 2.495553493499756 5.765976428985596 15.508082389831543 1.9241749048233032 2.4955523014068604 1.9241774082183838 9.660452842712402" pbc="T T T"
Mn       2.04772953       0.66268342      -0.27356048       0.03190330      -0.04395839       1.03591752
Mn       3.40906470       1.48915497      -2.36863773      -0.18312520       0.14583877      -0.41731051
Mn       1.28703194       4.51489469       2.74732834      -0.20379245      -0.27640468      -0.33546942
Mn      -0.89204416       5.37805886      -1.40759319       0.30730435       0.45390478      -0.01026974
Mn       0.85660439       3.58253810      -0.02295429      -0.01707339       0.52387863       0.60404098
Mn       1.91626533       0.55705518       3.25938464       0.17848547      -0.25411418      -0.17581686
Mn       2.27094721       2.52815827       1.82467635      -0.48206088      -0.14961478       0.47685933
Mn      -0.41581790       2.56780926       2.00884414       0.31289631       0.72092950       0.27737215
Mn       3.91329402       0.66123162       1.61944853      -0.55340266      -0.03072059       0.16466805
C       -0.29474067       4.53077690       1.46281057       0.90827245       0.14829767       0.17541605
C        0.70945258       1.78131891       0.60081857       0.02932802      -0.47913575       0.17628998
C        0.95343859       2.35606679       3.39900939       0.11430780      -0.02645821      -0.67126727
Mn       3.24977371       4.88906492       1.24356248      -0.13813023       0.13092661      -0.19396865
Mn       0.27077729       3.35154141       4.94319998      -0.31961381      -0.53501469      -0.39949250
C        1.07254233       4.95258763      -1.33512025       0.35190386       0.21334925      -0.23996527
C        3.59546595       1.64894037       3.27451615      -0.33720323      -0.54170400      -0.46700439
4
Lattice="3.7402994632720947 0.0 1.5607688426971436 1.558197424709697 3.3850665881784567 1.547808289527893 0.0 0.0 5.184689521789551" Properties=species:S:1:pos:R:3:forces:R:3 sample_seed=85020 sample_index_within_seed=0 benchmark_method=FT0 dft_verified=F structure_index=0 total_energy=-25.15777587890625 stress="0.8481177091598511 0.626239538192749 -0.4912070333957672 0.6262390613555908 -0.20521530508995056 -0.616837203502655 -0.49120619893074036 -0.6168363690376282 0.7090153694152832" pbc="T T T"
Pt       1.51294281       0.72082796       1.39510727       0.09465481       0.03409271      -0.24432293
Si       3.56800547       2.03326450       6.92749800       0.09210421       0.04860921      -0.09574485
Pt       4.49600475       2.62578153       4.75714061      -0.07151798       0.01786730       0.30183589
Pt       0.39076352       0.00339876       4.04799201      -0.11524108      -0.10056920       0.03823179
12
Lattice="4.33286714553833 0.0 -1.0032249689102173 -0.4687965159793462 5.177382361766231 -1.324951410293579 0.0 0.0 5.233989238739014" Properties=species:S:1:pos:R:3:forces:R:3 sample_seed=85021 sample_index_within_seed=0 benchmark_method=FT0 dft_verified=F structure_index=0 total_energy=-109.0526123046875 stress="3.1934754848480225 0.07726818323135376 0.8379006385803223 0.07726891338825226 1.8130393028259277 1.3254011869430542 0.8378983736038208 1.3253995180130005 3.380434274673462" pbc="T T T"
Mn       1.88595605       4.80129143      -1.08350255      -0.10289540       0.17086194       0.45082018
Mn       1.83906118       0.45250208       2.92981636      -0.21364228       0.07024994      -0.18010156
Mn      -0.25319995       3.41494658      -0.86273993       0.28070009      -0.03341213       0.00392669
C        2.73141417       4.52077949       2.48199344      -0.06773454      -0.03796219      -0.10158014
Mn       3.56381572       4.23592683       0.79858257       0.04186957      -0.00785060      -0.30143413
Mn       2.19741174       2.34599043      -0.38879978       0.13199648       0.00965366       0.34652355
C        0.79430362       1.94043305       3.63949928       0.02018614       0.02360000      -0.01967996
Mn       3.72826270       1.52955656       1.42978012      -0.17446405      -0.13415000      -0.30340573
Mn       1.53614035       2.99350715       2.19728811      -0.24134803      -0.55480564      -0.70131338
C       -0.14520862       2.65987750       0.91071621      -0.35786626      -0.15184556      -0.03284998
Mn       0.04676303       0.87293301      -0.17455673       0.34069145       0.59871852       0.91631645
C        1.74663502       1.21114872       1.14674956       0.34250700       0.04694207      -0.07722174
12
Lattice="5.216352462768555 0.0 -1.6484936475753784 -2.8850779618316555 4.3744521644856595 -1.5391377210617065 0.0 0.0 5.475451469421387" Properties=species:S:1:pos:R:3:forces:R:3 sample_seed=85022 sample_index_within_seed=0 benchmark_method=FT0 dft_verified=F structure_index=0 total_energy=-104.5875015258789 stress="1.4974092245101929 0.5887640714645386 -0.7539116740226746 0.5887625813484192 1.7967448234558105 -0.8272007703781128 -0.753913164138794 -0.827201247215271 2.2446231842041016" pbc="T T T"
Al      -0.26677324       0.94438864       2.69035358      -0.05486783      -0.03408788       0.05405043
C        3.71180561       0.76276901       2.71513030       0.18790486       0.06508759      -0.06549729
Mn      -1.82370111       2.94257450       1.56410718      -0.32262528       0.00962457      -0.28851986
Mn       2.21866442       0.75539705       1.51503749      -0.34931672      -0.01881807      -0.27471066
Mn       0.88551748       3.17054292       1.10772945      -0.18514782       0.14279073       0.25211334
C       -2.26326886       3.97551858      -0.07431919      -0.18282363       0.24620877       0.39080459
Mn      -1.42395405       2.71109395       4.28370590       0.21951215      -0.20859139      -0.33295465
Mn       1.27938413       2.94188224      -1.63512406       0.27582029      -0.04169131       0.17615864
Mn       0.10150025       0.75471091      -0.04219063       0.31618375      -0.00931855       0.19395949
Mn       2.59071436       0.55909385       4.27969199       0.07751835      -0.05495353      -0.15150276
C       -0.27484031       3.00066894       2.70138875      -0.04925685      -0.03747827       0.14358628
C        1.73219091       1.86998943      -0.03868827       0.06709881      -0.05877282      -0.09748761
10
Lattice="2.815516233444214 0.0 -0.013753239996731281 0.033514462144569886 5.754491486639904 -3.0251944065093994 0.0 0.0 6.53571891784668" Properties=species:S:1:pos:R:3:forces:R:3 sample_seed=85023 sample_index_within_seed=0 benchmark_method=FT0 dft_verified=F structure_index=0 total_energy=-90.31246185302734 stress="5.401816368103027 0.8494976162910461 -0.5509421229362488 0.8494970798492432 3.795166015625 1.681894063949585 -0.5509427189826965 1.6818922758102417 1.37211275100708" pbc="T T T"
Mn       0.24646732       3.77859118       4.21417508       0.06603198       0.12045011      -0.22085087
Mn       0.23925049       1.14255643       4.30033688      -0.03029708      -0.36041659       0.37306994
Mn       1.65631714       5.00694063       2.22228004       0.02295763       0.38317204      -0.42689762
Mn       1.65329363       2.47279324      -0.75076960      -0.03543880      -0.13877158      -0.10361604
Mn       0.23989523       3.66578752       0.74036743       0.03991137       0.23675434       0.04683650
C        1.66403516       5.11183930      -2.43371241      -0.05208944       0.04373100       0.32213390
Mn       1.66903782       5.39292769      -0.43632492      -0.01977758       0.09792170      -0.82836139
C        0.23091855       1.07478562       2.40922824       0.05299885      -0.34282023      -0.14433157
Mn       1.64847641       2.38240015       2.32305194      -0.07474820       0.03039110       0.21757939
Mn       0.22435282       0.77170855       0.43038637       0.03045115      -0.07041204       0.76443815
4
Lattice="3.6824285984039307 0.0 2.085972547531128 1.2305830190548404 3.45399464232714 2.0722451210021973 0.0 0.0 4.220816135406494" Properties=species:S:1:pos:R:3:forces:R:3 sample_seed=85024 sample_index_within_seed=0 benchmark_method=FT0 dft_verified=F structure_index=0 total_energy=-34.23372268676758 stress="-1.2053322792053223 -0.15075045824050903 -0.36546561121940613 -0.15074984729290009 -1.4558699131011963 -0.22565478086471558 -0.3654649555683136 -0.2256561815738678 -1.5170519351959229" pbc="T T T"
Mn       1.39553647       1.71528422       1.47959747      -0.00719763       0.00578092      -0.02132811
Mn       3.84995771       0.84860403       5.68843237       0.00327571       0.02301773       0.02324112
Mn       3.85400779       3.44058791       5.67076533       0.00174662       0.00866980       0.00595330
Rh       2.62428233       2.58212864       3.57495399       0.00217534      -0.03746849      -0.00786632
10
Lattice="2.839578866958618 0.0 -0.01867668516933918 -1.4273611898889982 2.4471873548696896 -0.03198361396789551 0.0 0.0 14.293952941894531" Properties=species:S:1:pos:R:3:forces:R:3 sample_seed=85025 sample_index_within_seed=0 benchmark_method=FT0 dft_verified=F structure_index=0 total_energy=-88.09939575195312 stress="-0.2779792547225952 -0.1728755235671997 -0.7422816157341003 -0.17287766933441162 -1.7842178344726562 -2.144913673400879 -0.7422819137573242 -2.1449127197265625 -5.011631965637207" pbc="T T T"
Mn       0.25093039       2.41323101       6.52689845       0.04672474       0.08837000       0.03048754
C        0.25586736       0.78262267       9.72656362      -0.01683984       0.00514897      -0.06845202
Mn       0.25008224       2.41334799      10.76147305       0.03591188       0.12118202      -0.05361390
C        1.67255060       1.59729904       5.47540172       0.00138286      -0.00516870      -0.28587627
Mn       1.67161708       1.59888969       8.67345308      -0.02820368      -0.14684403      -0.34249306
Si       1.67210923       1.59868343      12.60991912       0.00388021      -0.01109075      -0.09486389
Mn       1.67575460       1.59933340       2.24910770       0.03002460       0.10168225       0.13273233
C        0.25252570       2.41168908       1.19246969       0.02461539       0.02762301       0.26256192
Mn       0.25605005       0.78234035       4.38870501      -0.04644244      -0.07795140       0.31344253
Mn       0.26025658       0.77926875       0.16446806      -0.05105378      -0.10295137       0.10607481
11
Lattice="4.463056564331055 0.0 -1.54267418384552 -1.621201802855055 4.149051618024886 -1.4318476915359497 0.0 0.0 5.899174213409424" Properties=species:S:1:pos:R:3:forces:R:3 sample_seed=85026 sample_index_within_seed=0 benchmark_method=FT0 dft_verified=F structure_index=0 total_energy=-99.27041625976562 stress="-2.4726290702819824 0.16067014634609222 -1.1789405345916748 0.16066418588161469 -2.591689109802246 0.39801153540611267 -1.178946852684021 0.39801037311553955 0.2525147795677185" pbc="T T T"
Mn       2.48892265       2.35111093       2.88140229      -0.01882525      -0.00081258       0.00165369
Mn       1.06679908       0.27517185       4.37197928      -0.03148430       0.03827491      -0.03060800
Mn       3.78442415       0.73707706      -1.15731063      -0.13018230       0.10049075      -0.29575780
Mn       0.00270774       1.74176636       2.50382299      -0.09048852       0.03911624       0.20197460
Mn       1.92394651       1.55210419       0.51375556       0.44998470       0.54548711      -0.37575215
Mn       0.50379397       2.97620004      -1.09847760       0.09154615      -0.12858072      -0.20485365
Mn       1.19561679       3.96425316       1.02423785       0.11417148      -0.04998204       0.24478865
C        0.95703901       3.39322270       2.91386210       0.30945823      -0.11752752      -0.01423636
C       -0.44486277       1.30679013       4.38684549      -0.23591396       0.19685712       0.07245999
C        1.08279165       0.29838387       1.41584391      -0.21428418      -0.27551568       0.20718384
Mn       3.05352720       3.17674327      -0.66206672      -0.24398255      -0.34780762       0.19314685
16
Lattice="5.133536338806152 0.0 0.2586100995540619 -2.4409449478889096 4.580498561912218 -1.9521982669830322 0.0 0.0 6.8584465980529785" Properties=species:S:1:pos:R:3:forces:R:3 sample_seed=85027 sample_index_within_seed=0 benchmark_method=FT0 dft_verified=F structure_index=0 total_energy=-144.284912109375 stress="6.583348274230957 1.2802437543869019 -0.09433359652757645 1.2802433967590332 7.581910133361816 0.07819665968418121 -0.09433229267597198 0.0782003328204155 7.690674781799316" pbc="T T T"
Mn       0.54131827       2.91510402      -0.48683312      -0.06967899      -0.41456899      -0.24146713
Mn       3.92780582       1.61664577       0.80573794       0.51953804      -0.12503073       0.02205430
Mn       1.85810284       0.53037679       6.25723113      -0.05031474       0.14108384      -0.09328838
Mn       1.52721897       2.05927658       1.56184637       0.28536701       0.12703758      -0.01057091
C       -0.11846016       1.24780681       2.54141662      -0.20097987      -0.22747168      -0.09032843
C        2.57524185       0.17472761       1.15716111       0.12734839       0.25628006       0.30747384
Mn       2.11075675       3.93758553       4.89062024      -0.19953838      -0.17598027      -0.23687577
Mn       1.06383115       1.72587507       4.07497287      -0.05817100      -0.19185382       0.08961886
Mn       2.25853097       4.32110076       2.46188105      -0.00648782       0.56282860       0.29746610
Mn      -0.56018807       3.25653311       2.49406803      -0.29185924      -0.44036645      -0.29938340
C       -0.01978047       1.04962574       5.74692081      -0.09712423       0.33251196      -0.36305726
C        2.43334505       2.53261616      -0.33972247       0.09666633      -0.08049059       0.06905504
Mn       3.67825443       2.09148422       5.07196675       0.03851192      -0.17362723      -0.21525468
Mn       3.03875328       0.60849687       2.97862752       0.69969082       0.37907553       0.43901271
C        2.67732300       2.60389896       3.32894522      -0.35332865       0.04126621       0.13295092
Mn      -1.65458664       4.17267317      -0.06998882      -0.43963969      -0.01069416       0.19259384
12
Lattice="4.679178237915039 0.0 -1.4075593948364258 -2.132145028274579 4.161138965440243 -1.4232314825057983 0.0 0.0 5.619356632232666" Properties=species:S:1:pos:R:3:forces:R:3 sample_seed=85028 sample_index_within_seed=0 benchmark_method=FT0 dft_verified=F structure_index=0 total_energy=-107.67073822021484 stress="2.923034191131592 -0.021555470302700996 0.4847576916217804 -0.02155771665275097 2.4436464309692383 -0.012169831432402134 0.4847584366798401 -0.012168084271252155 2.765030860900879" pbc="T T T"
C        1.89002464       2.27313197       0.20790718      -0.17598566       0.04867114      -0.18076186
Mn      -1.02087467       3.03131313       4.32493402       0.12731811      -0.17016718      -0.23519412
Fe      -1.85623436       3.92868095       2.06015840      -0.02097743       0.04128888       0.02447435
C        0.61905038       0.17891743       1.60671435      -0.15758766       0.03955083      -0.09019789
Mn       0.31272935       3.62596564       0.77083412      -0.05580212       0.04207313       0.01068893
Mn       1.47309757       3.29033419      -1.46993965       0.21997486      -0.00161208       0.06993128
Mn       0.21164730       1.22535048      -0.05547684       0.12083435      -0.13648047       0.12103228
Mn       2.38864418       0.94960119       4.33118016       0.03439534      -0.12648958      -0.13898461
C        0.06298931       3.13286351       2.65042944       0.00370508       0.11525536       0.13959990
C        3.48695937       1.06868700       2.66397091      -0.08911450       0.01638497       0.08301360
Fe       1.55160980       1.82879331       2.07030482      -0.16693701       0.09785095       0.13013396
Fe       3.69212306       1.54885348       0.77586204       0.16017638       0.03367426       0.06626403
8
Lattice="4.163242340087891 0.0 2.1725587844848633 1.5869155871251188 3.8372744582975993 2.162101984024048 0.0 0.0 5.162452697753906" Properties=species:S:1:pos:R:3:forces:R:3 sample_seed=85029 sample_index_within_seed=0 benchmark_method=FT0 dft_verified=F structure_index=0 total_energy=-73.01182556152344 stress="4.994654178619385 0.8598466515541077 1.1464502811431885 0.8598474264144897 3.781524658203125 0.5419994592666626 1.1464502811431885 0.542000412940979 5.870934963226318" pbc="T T T"
Mn       1.41195318       2.56030922       3.84467444       0.06468052       0.01441979       0.10460494
Mn       3.41758698       3.79041375       5.32309263      -0.01760019       0.07957897      -0.01683383
Mn       1.87631687       1.86944609       6.42276388       0.05587660       0.02690247       0.18131626
Mn       3.73959694       1.33063698       4.63371881      -0.08567839       0.04099301      -0.22590825
C        1.51887076       3.52187889       5.52319326      -0.01190609      -0.04961188       0.00216753
Mn       4.20096858       0.64329893       7.21039120      -0.05037598      -0.01208494      -0.08682646
Mn       3.78081972       3.25570031       7.89767903       0.03589839      -0.13050537       0.00931448
C        2.80707854       1.60106734       2.94514908       0.00910521       0.03030811       0.03216541
4
Lattice="4.618134021759033 0.0 2.686598539352417 1.500150334280135 4.38555015415053 2.7096469402313232 0.0 0.0 5.363534450531006" Properties=species:S:1:pos:R:3:forces:R:3 sample_seed=85030 sample_index_within_seed=0 benchmark_method=FT0 dft_verified=F structure_index=0 total_energy=-30.27649688720703 stress="0.6343755722045898 -0.10707123577594757 0.02937295474112034 -0.10707114636898041 0.8455324172973633 0.08217883855104446 0.02937307581305504 0.08217890560626984 0.756126880645752" pbc="T T T"
Eu       3.67677866       3.90323786       4.02486192       0.00847031       0.00761522       0.00932599
Eu       0.62368070       1.71705710       4.01492368      -0.01520740      -0.01714766      -0.01513410
Au       2.13947022       2.80167122       6.68607393       0.01266408       0.01024366       0.01965049
Au       3.71599704       0.61979812       4.02084474      -0.00592697      -0.00071122      -0.01384237
10
Lattice="3.4244935512542725 0.0 0.02730335295200348 -0.020112927818764403 6.161991196630187 0.08704037219285965 0.0 0.0 6.995391845703125" Properties=species:S:1:pos:R:3:forces:R:3 sample_seed=85031 sample_index_within_seed=0 benchmark_method=FT0 dft_verified=F structure_index=0 total_energy=-74.78359985351562 stress="2.1075384616851807 -0.2152683436870575 0.5296595692634583 -0.21526797115802765 -0.6184430122375488 -0.1905466616153717 0.5296595692634583 -0.19054587185382843 -0.2504679262638092" pbc="T T T"
Mn       0.08456645       5.06883417       2.34877143       0.00234517       0.13568178       0.07977474
Mn       1.80977461       1.10545395       5.79037605       0.05606335       0.09633562      -0.10758707
As       1.80401768       3.44133430       5.45325221      -0.00043380       0.01505889      -0.15891974
Mn       0.09316776       2.31483034       3.79315433       0.00822094       0.06052786       0.09284037
Mn       1.79574573       4.96404494       0.29689300       0.00493836       0.02290633       0.13057005
As       0.09937689       0.49198470       0.41262627      -0.04331274      -0.26030093      -0.32299110
Mn       0.08473001       5.29620457       5.15913548      -0.01974657      -0.11701821       0.18126969
As       1.81172119       0.20065871       3.53630812       0.02905488       0.05628204       0.24831030
Mn       0.09174940       2.88280512       0.27123976      -0.01283573      -0.09101294      -0.11677465
As       1.80218717       3.24922714       2.08398074      -0.02429384       0.08153956      -0.02649270
