17
Lattice="5.38898650098586 0.0305718362006557 -3.1349051249113478 -2.491871251570614 5.407838762565249 -1.2598621680837165 -0.1279557664537947 -0.02644259459681693 6.085145373414305" Properties=species:S:1:pos:R:3:forces:R:3 sample_seed=85000 sample_index_within_seed=0 benchmark_method=FT0 dft_verified=F structure_index=0 total_energy=-146.04734802246094 stress="0.04230255261063576 -0.0027945174369961023 0.0037871527019888163 -0.0027938797138631344 0.0425664521753788 0.0013588911388069391 0.003785170614719391 0.0013560181250795722 0.04102106764912605" pbc="T T T"
Mn       1.40088539       0.64408291       4.34763395      -0.00121336       0.00503731      -0.00338066
Mn      -0.36309443       4.29624755       0.92544314      -0.00700219      -0.02718432       0.00402877
Mn       3.78050518       1.20338964       2.97256951      -0.01436713       0.03070056      -0.00147337
C       -0.48089916       1.39437319       4.36770536      -0.00838237      -0.02479641       0.01107281
Mn      -1.01209740       3.32132976       4.53891426      -0.00465527      -0.00295139       0.00110275
Mn       2.66274916       2.89024399      -1.37788165       0.00108295      -0.00267833       0.01255688
Mn       2.60076310       5.29404926      -1.50271295       0.01268247      -0.01382395      -0.00936249
As       1.95262895       2.55047972       2.19003936       0.00152216       0.03383112      -0.03176995
Mn       0.74035622       2.28092002      -0.01776474       0.00440034       0.00018349      -0.00063804
Mn       2.14544663       4.45294316       0.66806845      -0.00657409       0.04937305      -0.00294745
Mn       2.99182584       0.79731298       0.58752162       0.00731939      -0.04482739      -0.01434818
C        3.46086293       1.01298910      -1.27382060       0.00375439      -0.00001603       0.00053997
Mn      -0.44979563       2.21566763       2.42385276       0.01124167      -0.01128358       0.01729220
C       -1.36840485       4.06643306       2.67037247       0.00458805      -0.00210676       0.00664119
Mn       0.72671142       4.40653470       3.17127811      -0.00723228       0.00201923       0.00506398
C        0.93541673       4.05170373      -0.89271723      -0.00119007       0.00096087      -0.00076030
As       0.63101149       0.02229066       0.74349171       0.00402552       0.00756271       0.00638225
7
Lattice="4.590025472451942 -0.017186729703472892 -1.2805323538200268 -0.335218688065842 4.581357084797298 -1.2672311141113983 -0.04943393603470966 -0.08016613205210038 8.68197854111047" Properties=species:S:1:pos:R:3:forces:R:3 sample_seed=85001 sample_index_within_seed=0 benchmark_method=FT0 dft_verified=F structure_index=0 total_energy=-66.84532928466797 stress="-0.012710629031062126 -0.002097513759508729 -0.01545671746134758 -0.0020974953658878803 -0.01701427809894085 -0.020261237397789955 -0.01545744575560093 -0.02026110701262951 -0.03473653271794319" pbc="T T T"
Eu       2.79911196       3.69866395       6.58146298       0.00359943       0.00351841       0.00413713
Eu       1.34763857       2.16024955       1.39571546      -0.00321572      -0.00364224      -0.00347939
As       3.98035077       0.04109834       1.99177213      -0.00498468      -0.00503396      -0.00532641
Eu      -0.22130838       2.93861861       4.62958530      -0.00404842      -0.00200774      -0.00044928
As       0.50180771       1.23693217       7.25198408       0.00398296       0.00480121       0.00610150
Eu       2.24051193       0.63826355       4.62140375       0.00136365       0.00531305      -0.00078938
O        2.07277428       2.92946227       3.98773202       0.00330276      -0.00294869      -0.00019424
19
Lattice="6.206583714809558 0.266693282278576 -3.1132277731356344 -3.5295622459310767 4.663047292416979 -0.5302450778930977 0.02692473084835401 0.06098058313249895 5.840555754968098" Properties=species:S:1:pos:R:3:forces:R:3 sample_seed=85002 sample_index_within_seed=0 benchmark_method=FT0 dft_verified=F structure_index=0 total_energy=-171.26283264160156 stress="0.002651519374921918 -0.0009270322043448687 -0.0002299008338013664 -0.0009248133865185082 0.005616713780909777 0.00048414821503683925 -0.00023065459390636533 0.00048560320283286273 0.0007176455692388117" pbc="T T T"
Fe       0.43106803       4.70748092       1.15082389      -0.02422367       0.01473236       0.00174962
Mn      -0.81488787       4.45893315      -0.95364960       0.00233702       0.00023785      -0.00285316
Mn      -1.29600154       3.47321899       2.58505887      -0.00870491      -0.00439562      -0.00330849
C        3.20977182       1.69881982      -0.37940687      -0.00237200       0.00306638      -0.01444092
Mn       2.56150214       3.38437613       0.29461395      -0.00518144      -0.01066996       0.01068574
Mn       1.07590674       3.60358437       3.18104654      -0.00935507       0.00866698      -0.00900857
Mn       4.95068574       0.93539919      -0.72728785      -0.00028265       0.00324900       0.00088915
Mn       1.56004483       1.14852522       2.23793641      -0.01055600       0.00300416      -0.00426631
Mn       4.58879731       2.26004311       1.40237176       0.04533158       0.00216953       0.00876795
C        1.16984688      -0.07282978       4.19630961      -0.00402263      -0.01076971       0.00909352
Mn      -3.18742060       4.46684282      -0.34873254       0.00497968      -0.00267783       0.00152428
Mn      -0.11485854       2.36778349       0.71843686       0.00860867       0.00424056      -0.00373591
Mn       3.56074857       2.48918124      -2.15574322       0.00190294      -0.00426230      -0.00928292
C       -0.05613876       2.02762632       3.04005845      -0.00003422      -0.00204152       0.02122984
C        2.59098053       2.85253947       2.09067892      -0.00467747      -0.00603661       0.00301332
C       -1.57542482       3.97809975       0.76289410      -0.00072115       0.00122966      -0.00248371
Mn       1.28764952       1.72857913      -1.14013147      -0.00527477       0.00073482      -0.01078910
C        4.86207699       1.09360622       3.13642986       0.00434375      -0.00472608       0.00608678
C        0.93574300       3.69846465      -0.62575735       0.00790259       0.00424795      -0.00287083
11
Lattice="5.1598175638656425 -0.030195636824707602 0.931539616615921 -1.9803954518474105 5.139786341962438 -2.72431732497615 0.051013021502405345 0.017777884098098787 5.187636645598767" Properties=species:S:1:pos:R:3:forces:R:3 sample_seed=85003 sample_index_within_seed=0 benchmark_method=FT0 dft_verified=F structure_index=0 total_energy=-86.804931640625 stress="0.006288490258157253 0.002724200254306197 -0.0008405761909671128 0.002722893375903368 0.006689866539090872 0.004607597831636667 -0.0008421243401244283 0.0046049971133470535 0.0052762506529688835" pbc="T T T"
Mn       1.42894389       2.58889982      -0.63701990      -0.02722633       0.00514317       0.01385865
Mn      -0.96797112       3.98985739      -0.85812245       0.00515029       0.00268970      -0.00892635
Mn       2.99119164       1.04665847       0.64189037       0.02208638       0.02928573       0.00982656
Mn       1.67081233       4.90594178       0.12265425      -0.01479148       0.00204509      -0.00953041
C        0.97531012       4.21615826      -1.58476852       0.01423339      -0.01252040      -0.01946311
As       3.76538451       2.13857806       3.68007294       0.00240428       0.02729961      -0.01719211
As       0.18062988       1.07505113       0.81234148       0.00525622      -0.02006531       0.03141828
Mn       0.47318185       3.46773538       1.90876607       0.01480305       0.00874469      -0.02175152
Mn       2.79883530       4.01193414       2.61229565      -0.00615132      -0.03090639       0.00281021
As       1.46386239       0.29422474       3.70896262      -0.00964179      -0.00912623       0.04247211
C        2.31958344       3.21903274       0.96200380      -0.00612298      -0.00258982      -0.02352206
8
Lattice="3.02792409491785 0.0006559030032045578 -0.7255300677976186 -2.181469826366696 4.946025141097431 -2.4189903325576005 0.15926884886869724 -0.23124456388763875 7.34553521193289" Properties=species:S:1:pos:R:3:forces:R:3 sample_seed=85004 sample_index_within_seed=0 benchmark_method=FT0 dft_verified=F structure_index=0 total_energy=-59.73645782470703 stress="-0.05993140861392021 -0.0021705038379877806 0.0021243232768028975 -0.0021701641380786896 -0.05340788885951042 -0.009816140867769718 0.002123394049704075 -0.009812964126467705 -0.05190597102046013" pbc="T T T"
Mn      -0.62697863       2.00522541       1.66533565       0.00218640       0.03824794       0.00931299
Mn      -1.26719375       4.79176684      -1.00406336       0.00068636      -0.02648091       0.00265026
As       0.44510529       2.94749849      -0.54061192      -0.00115211      -0.01933073      -0.00569555
As       1.34586664       1.31987365       3.21666453      -0.00295427       0.00512870      -0.01140545
As       1.12241095       3.97781479       2.28637516      -0.00118575       0.02669278      -0.00494915
C        2.17842914       0.29360920       0.01021053      -0.00201738      -0.04291584      -0.01014468
Mn       0.01342234       3.09926548       4.33853255       0.00011345       0.03026205       0.00123672
Mn       1.91807927       0.98288873       5.60456786       0.00432335      -0.01160386       0.01899463
14
Lattice="4.183667528229641 0.013502686191266357 -1.6592273988165038 -0.2613157836956806 4.918268500468428 -0.6186272829950454 0.025111726513036364 0.030782298495146288 6.177561356422969" Properties=species:S:1:pos:R:3:forces:R:3 sample_seed=85005 sample_index_within_seed=0 benchmark_method=FT0 dft_verified=F structure_index=0 total_energy=-129.1903533935547 stress="0.05210825428366661 -0.0010003084316849709 -0.0046121496707201 -0.0010006551165133715 0.05456218123435974 -0.002489164937287569 -0.004611716140061617 -0.0024906997568905354 0.0473891980946064" pbc="T T T"
Mn       1.45010030       4.05354449       0.03991418       0.01160864       0.02548695      -0.00215884
Mn       2.29126011       4.32528368       2.34750066       0.00570706       0.00065493       0.00173722
Mn       3.23018732       4.56438840      -1.57020747       0.01662281      -0.01752073      -0.01022840
Mn       0.84266888       0.24429821       4.72449581      -0.01851638       0.00435404      -0.00036927
Mn       2.55441655       2.10428189      -0.94229007      -0.00986966      -0.02611798       0.00652146
C        1.69256685       3.50830773       4.09758063       0.01151864      -0.00472462       0.00751287
Mn       3.44853994       1.02596793       1.16936775       0.01971558      -0.00564130      -0.00054698
Mn      -0.00129069       2.70083905       4.69654834       0.00465376      -0.00703214      -0.00251288
Mn       0.77430307       1.59305083       0.66760863      -0.01113398       0.01894975       0.01787350
Mn      -0.15204971       3.47408193       2.23821376      -0.00687113       0.00716767       0.00093553
C        2.33753305       2.68009767       1.17752120      -0.01491977       0.00577404      -0.00760987
C        3.37682644       1.05415408       3.79445682       0.00649434      -0.00705504       0.00372092
C        0.91476993       0.21609917       2.10012783      -0.00863990       0.00763099      -0.00797834
Mn       1.73898357       1.86323691       2.92792667      -0.00637028      -0.00192700      -0.00689684
9
Lattice="3.050899867246374 0.018524441371399733 -0.006880797184172258 -0.03846262676185945 5.221268456170598 -3.006723100608661 0.013672963079768263 -0.007887290403926514 6.0242609113627354" Properties=species:S:1:pos:R:3:forces:R:3 sample_seed=85006 sample_index_within_seed=0 benchmark_method=FT0 dft_verified=F structure_index=0 total_energy=-77.67163848876953 stress="-0.05790943279862404 0.00042094476521015167 0.0003115192230325192 0.00042120853322558105 -0.03304485231637955 0.001042563351802528 0.00031235130154527724 0.0010433787247166038 -0.031118562445044518" pbc="T T T"
Mn       2.90657431       1.87239695      -0.57253736       0.00164390      -0.04271829       0.02227052
P        2.89387140       4.84805800       1.72611340       0.00083073      -0.00243209       0.00072664
Mn       1.37756966       3.10019365       1.10113943      -0.00030914      -0.00063642      -0.03532504
Mn       2.90806464       3.10624535       3.30690520      -0.00019438       0.00040681      -0.04460326
Mn       1.35694488       5.16862278      -2.47422997       0.00000574      -0.02549255       0.02082373
C        1.37209398       3.09887672      -1.28330748       0.00046406       0.01129249      -0.00068449
Mn       1.39587990       1.03336111       3.54633254      -0.00225233       0.02020337       0.01736149
P        2.91504713       1.36909819       1.72368519       0.00006179      -0.00209543      -0.00641123
Mn       2.89173490       4.34955112      -0.57101408      -0.00025031       0.04147196       0.02584155
4
Lattice="3.9328171233243023 -0.000789104299958247 1.2706350318965631 1.2140948430451823 5.543225934764556 2.9722763613358385 0.11437537056254073 -0.11364297525727274 6.366013766934281" Properties=species:S:1:pos:R:3:forces:R:3 sample_seed=85007 sample_index_within_seed=0 benchmark_method=FT0 dft_verified=F structure_index=0 total_energy=-39.073123931884766 stress="0.021095413714647293 -0.003390170633792877 -0.0014201055746525526 -0.003390346188098192 0.0232001431286335 0.007747328840196133 -0.0014203956816345453 0.007747916039079428 0.03203068673610687" pbc="T T T"
Eu       2.61415482       2.83105016       3.33883295       0.00098233       0.02087289      -0.00938679
Eu       3.75880962       4.52581943       6.50919279       0.00644732      -0.01357517      -0.00980988
Eu       1.57394127       1.00021407       6.55230333      -0.00475401       0.01279588       0.01093841
Pt       5.02658655       4.46549478       9.31282881      -0.00267566      -0.02009354       0.00825827
12
Lattice="3.4312972818802145 -0.007606586528116679 0.010934003724872922 0.013108923370600547 5.935247690575928 0.02540598340998401 -0.02183226736687209 -0.030380505269996017 6.830323693003353" Properties=species:S:1:pos:R:3:forces:R:3 sample_seed=85008 sample_index_within_seed=0 benchmark_method=FT0 dft_verified=F structure_index=0 total_energy=-101.07207489013672 stress="0.03929869830608368 0.0003171453718096018 -0.0010316440602764487 0.0003167314571328461 0.02352733723819256 -0.0011310578556731343 -0.0010320234578102827 -0.0011311372509226203 0.01198279857635498" pbc="T T T"
Mn       1.20294520       5.79710510       5.59536475      -0.00176177      -0.02867352       0.01205193
Mn       2.91634812       3.84323965       4.87436120       0.00011472       0.02384575       0.00826569
Mn       1.20456573       2.84130542       3.00636969      -0.00194396      -0.03230840       0.00007575
P        1.20759261       5.09106895       3.48648133       0.00157783      -0.01702523       0.04457179
Mn       2.90613152       1.51228661       6.42277337       0.00134053       0.03215200      -0.01901529
Mn       1.21462603       3.49681485       0.31387467      -0.00108808      -0.02576250      -0.01597402
Mn       2.91390993       0.88139759       3.72113517      -0.00318912       0.01825494       0.00346043
Mn       1.20372070       0.52303644       1.44101225       0.00305843      -0.01522100      -0.00489829
Mn       2.92601549       4.49902546       2.18018205       0.00297084       0.03118752       0.01259659
P        1.19605488       2.11640006       5.10887517       0.00038892      -0.02176948      -0.02831551
P        2.93484426       5.22352114       0.07815241      -0.00049125       0.02239910       0.03122079
P        2.92302985       2.24911887       1.70092643      -0.00097714       0.01292085      -0.04403977
8
Lattice="3.7149787834999706 -0.034958447322294806 -1.6374999982729783 -0.6913558707502415 3.6474003210958608 -1.6432326483139381 -0.027419042634371154 -0.02388394547849833 4.97466329884208" Properties=species:S:1:pos:R:3:forces:R:3 sample_seed=85009 sample_index_within_seed=0 benchmark_method=FT0 dft_verified=F structure_index=0 total_energy=-71.52886199951172 stress="0.009163151495158672 -0.020720165222883224 0.019153669476509094 -0.020719142630696297 0.001428454415872693 0.0437152199447155 0.019152825698256493 0.04371412470936775 0.10416953265666962" pbc="T T T"
Mn       1.64386094       0.70519435       1.79926729      -0.00178867      -0.00049135       0.00315401
Mn       2.06947351       3.44253765      -2.32870861      -0.00273632      -0.00563374       0.00439749
C        0.21001482       3.46389598      -1.51346675       0.00900492      -0.00667569       0.02110694
C        2.41483553       1.61681383      -1.50495319      -0.01124960       0.01614963      -0.02146278
Mn       0.55524741       1.64107677      -0.68983261       0.00268897      -0.00250229       0.00031334
C        1.29880639       2.52932023       0.97943635      -0.00952049      -0.00362629      -0.00946482
Mn       3.15474301       2.51138172       0.16055679       0.00504512       0.00250924      -0.00694070
C        3.50093056       0.68779488       0.98062921       0.00855630       0.00027044       0.00889645
3
Lattice="3.7936661767082023 -0.018237058240035284 0.020312099310515752 0.02120335452255619 3.672229613987588 -0.9720421542210139 -0.047147894951541834 -0.003646242071973146 7.419568180396869" Properties=species:S:1:pos:R:3:forces:R:3 sample_seed=85010 sample_index_within_seed=0 benchmark_method=FT0 dft_verified=F structure_index=0 total_energy=-25.403696060180664 stress="0.05219804495573044 -0.005366732832044363 -0.006369732320308685 -0.005366651341319084 0.060071755200624466 -0.006253611762076616 -0.006369618233293295 -0.006253623403608799 0.018892141059041023" pbc="T T T"
Eu       1.23275020       1.47935086       5.72119607      -0.00028443      -0.01136867      -0.02639964
Au       3.14689022       2.84639682       3.52311222       0.00363867      -0.00131786      -0.01190534
Eu       1.25072318       0.55833510       2.26429954      -0.00335422       0.01268654       0.03830495
9
Lattice="4.065993085704931 -0.10546520989487661 -1.9417511271573085 -0.9928896071923204 4.970554503414947 -2.344632262992831 -0.21847716981792836 0.13323162534337363 7.023675361948921" Properties=species:S:1:pos:R:3:forces:R:3 sample_seed=85011 sample_index_within_seed=0 benchmark_method=FT0 dft_verified=F structure_index=0 total_energy=-60.63123321533203 stress="0.0020534535869956017 -0.0033195065334439278 -0.008514282293617725 -0.003320202697068453 0.011984766460955143 -0.0001303687022300437 -0.00851478148251772 -0.00013084846432320774 0.015780583024024963" pbc="T T T"
As       2.62320493       2.70179863      -1.94657459      -0.01633417       0.00431032      -0.03349362
Mn      -0.35361446       3.04457458       2.18741034      -0.01515014      -0.00840501      -0.00936942
Mn       0.81979856       1.98789006      -0.54927781      -0.01193414       0.00829692      -0.02911508
Mn       2.71627073       4.03079801       2.97455354       0.04166356       0.00974978       0.01572783
As       0.48818694       4.94458197       3.49812948       0.00414972      -0.00561116      -0.01497188
As       0.63693516       0.87637216       1.67607378       0.00443374       0.02230537       0.01129279
Mn       1.76657812       4.96483756      -1.31488903       0.01418057      -0.00835055       0.02291900
As       3.55475450       1.82767375       2.39458822      -0.02199900      -0.03199424       0.00809745
As       1.52389746       3.89434426       0.82750268       0.00098975       0.00969855       0.02891288
11
Lattice="3.4932220906215576 0.004920744897371191 -0.709495200315741 -0.31574775336745253 5.710780926671008 -1.5155339656811169 -0.036594424876984374 0.19356353257398975 8.760096837114064" Properties=species:S:1:pos:R:3:forces:R:3 sample_seed=85012 sample_index_within_seed=0 benchmark_method=FT0 dft_verified=F structure_index=0 total_energy=-80.4034194946289 stress="-0.02230782061815262 0.0005791912553831935 0.004313038662075996 0.0005791878793388605 -0.009369086474180222 0.0024272568989545107 0.00431334413588047 0.002426393795758486 -0.0030167449731379747" pbc="T T T"
As       1.09441521       0.31341465       5.82981030      -0.00706122       0.01036718      -0.02461265
Mn       1.48921040       5.51142988      -1.12686727       0.00257947       0.00056708       0.00637581
Mn       2.83916319       2.05099112       5.48148297      -0.00160052       0.01500949      -0.01243655
As       0.04935508       1.71899432       0.71331617       0.00374874      -0.01679081       0.01027812
Mn       2.86348230       5.78537918       5.62407918       0.00153479       0.01246035       0.01086452
Mn       3.19591656       3.65330536      -1.69203395       0.00155248       0.01738986       0.01639760
Mn       1.07439442       3.98165970       5.75987016      -0.00365435       0.01492965      -0.02396337
Mn       1.41854435       2.11580770       7.44106248       0.00263541      -0.02022845       0.01158175
Sb       2.32139354       0.41670387       2.89361206       0.00150167      -0.01119970      -0.00171279
Sb       2.41198665       3.46278782       3.38745223       0.00004382      -0.00459521       0.01515315
Mn       1.85748695       3.55693121       0.67354433      -0.00128025      -0.01790952      -0.00792561
9
Lattice="3.233965905519164 0.012239238797762267 0.7927998455153213 1.9312916051299247 6.467461818962579 -0.9773099737563049 -0.006231830575964227 0.07598000892322045 7.006182042866442" Properties=species:S:1:pos:R:3:forces:R:3 sample_seed=85013 sample_index_within_seed=0 benchmark_method=FT0 dft_verified=F structure_index=0 total_energy=-64.65409088134766 stress="-0.04487838223576546 0.00029742400511167943 -0.002000551437959075 0.0002965313324239105 -0.043529246002435684 0.0008493625791743398 -0.0020005088299512863 0.0008501210249960423 -0.04235382005572319" pbc="T T T"
Mn       3.52139528       4.86384216       0.85833872      -0.00018623      -0.02658272      -0.02016988
As       2.20805581       5.92822566      -0.79490191      -0.00713656      -0.01639261       0.02889656
Mn       2.26383154       3.39172529       5.99529277      -0.00464514      -0.02553943       0.01566669
Mn       2.96136410       3.43590322       3.14757482       0.00285234       0.02416512       0.00230213
As       1.02075888       2.41889349       4.08823050       0.00021774       0.02102229      -0.00511499
Mn       1.54875015       1.11774077       1.96077342       0.00238595       0.01388681      -0.01669610
Mn       4.22221759       5.08413943       4.97129472      -0.00338284      -0.00768620       0.02214678
As       3.48535643       2.49647287       1.03345641       0.00362152      -0.02392175      -0.00995003
As       3.00125806       5.85008872       2.94718446       0.00627322       0.04104862      -0.01708117
11
Lattice="3.3582640338332723 0.087280137839119 0.0026769457494678463 -0.16766507287016857 6.283618988175077 -3.678255670648029 -0.005315979024862738 0.03957958766623136 7.289215037601628" Properties=species:S:1:pos:R:3:forces:R:3 sample_seed=85014 sample_index_within_seed=0 benchmark_method=FT0 dft_verified=F structure_index=0 total_energy=-84.41574096679688 stress="0.03827623277902603 -0.01024679746478796 0.0009141325135715306 -0.010246272198855877 0.04361226037144661 0.0002610614465083927 0.0009138263412751257 0.0002602758468128741 0.05150024592876434" pbc="T T T"
As       0.88361194       6.05081543      -0.93822347      -0.00150055      -0.01256583      -0.00473106
Mn       2.58618619       5.22414349      -2.41457568       0.00380026       0.01863370       0.01071024
As       2.64752341       2.92326717       4.62347548      -0.00756965      -0.00133936       0.00290299
Mn       1.01712262       1.00663255       0.54358253       0.00481798       0.00775014       0.00410944
Mn       0.93778912       3.95669008       2.71009953      -0.00011854       0.00741256       0.01254079
Mn       1.01474701       1.03147063       4.92325798       0.00269206       0.00315590      -0.00985056
Mn       0.95412150       3.52640059      -0.92606992      -0.00763471      -0.00084257      -0.00251083
Mn       2.58297475       5.24170888       0.54943574       0.00934364       0.00622595      -0.01135108
As       2.55412695       6.18549020       2.70719671       0.01094580       0.02038486      -0.00096255
Mn       2.68667463       1.52439988       2.73126606      -0.01183358      -0.04071195      -0.00550791
As       2.64889425       2.90250748       0.82180194      -0.00294271      -0.00810353       0.00465062
8
Lattice="3.1419662275289992 -0.0067298951649845664 0.0035685445202485195 0.011086102770130429 5.177255643148328 -0.004740438438682034 -0.006611346467312676 0.0042902898693305755 5.8638495461730775" Properties=species:S:1:pos:R:3:forces:R:3 sample_seed=85015 sample_index_within_seed=0 benchmark_method=FT0 dft_verified=F structure_index=0 total_energy=-63.06459045410156 stress="0.021059660241007805 -0.0004731887311208993 -0.00024334300542250276 -0.00047282304149121046 -0.04166111722588539 -0.0033503773156553507 -0.0002436198847135529 -0.0033494450617581606 -0.017813319340348244" pbc="T T T"
Mn       0.10430146       3.66558374       4.16989125      -0.00031921       0.00558499       0.02306910
P        1.67471127       2.68218836       2.78465945       0.00046637      -0.01517487      -0.00037906
Mn       1.67294455       1.02011689       1.24161031       0.00034662       0.02257732       0.04077187
P        0.09911966       2.01143518       5.71595533      -0.00100134      -0.03984737       0.00803922
P        0.10879435       4.59446275       1.99348577      -0.00045224      -0.00423114      -0.00858800
Mn       0.09947798       1.07598636       3.54126501      -0.00039515       0.01706854      -0.04387033
P        1.66667651       0.09261770       4.93011365       0.00114029       0.02477114       0.00223476
Mn       1.67920967       3.61047126       0.60773482       0.00021463      -0.01074846      -0.02127743
8
Lattice="3.198161446496919 0.0024987852130483545 -0.02359235236332022 -0.00416389096461842 5.267174997883276 -0.01847091507712867 0.043501595178109635 0.033869950246450564 5.921876636131123" Properties=species:S:1:pos:R:3:forces:R:3 sample_seed=85016 sample_index_within_seed=0 benchmark_method=FT0 dft_verified=F structure_index=0 total_energy=-61.49115753173828 stress="0.03369877114892006 0.0013779634609818459 0.0007766904309391975 0.0013792591635137796 0.048160552978515625 0.008432512171566486 0.0007767218630760908 0.00843216571956873 0.0662217065691948" pbc="T T T"
Mn       2.83030160       3.38088700      -0.01423368      -0.00152678      -0.00372095      -0.01498900
As       2.84546267       4.36116511       2.22807809       0.00148554       0.01105751       0.00089104
Mn       1.25789572       3.33318567       3.68720727       0.00103217      -0.01202271       0.03306133
P        1.26791008       5.04534163       5.18274879       0.00005191       0.03875172       0.00463453
P        1.24225913       2.34731599       1.39353888      -0.00136531       0.00096908      -0.02564792
P        2.86335280       1.73907258       4.37200650       0.00056882      -0.00971074       0.00935593
Mn       2.83699956       0.78681780       0.61979330      -0.00158306      -0.00779459       0.03691033
Mn       1.25489473       0.78429437       3.02644805       0.00133675      -0.01752950      -0.04421623
20
Lattice="5.044748036085465 -0.19775463926236397 -0.9138251535933356 -1.1939040494755284 6.619805153584145 0.19133539534962746 -0.02430382707935997 0.2981584976434828 6.232210357869678" Properties=species:S:1:pos:R:3:forces:R:3 sample_seed=85017 sample_index_within_seed=0 benchmark_method=FT0 dft_verified=F structure_index=0 total_energy=-174.95257568359375 stress="-0.004438953008502722 0.00029010314028710127 0.0014168968191370368 0.00028905129875056446 -0.015518464148044586 -0.002405401086434722 0.0014179053250700235 -0.002406106097623706 -0.013550074771046638" pbc="T T T"
C        2.64381136       2.48338412       1.79464695      -0.00245380      -0.01314969       0.00128883
Mn       3.40564277       0.98091139       2.75905220       0.01069511       0.00172728       0.01180196
Mn       1.14115556       6.72214282       0.39435239       0.02258402      -0.01862658       0.02548652
C       -0.59620292       6.52478940       6.02739706       0.00796479      -0.01370116      -0.00191474
Mn      -0.51450979       5.31751569       1.53390079      -0.00593430      -0.00405382      -0.00329459
Mn       0.98133579       1.60949961       1.81797117      -0.02154458       0.00559711       0.01144534
Mn       1.38752870       0.29326459       4.00206796      -0.01796733       0.01359689       0.01266901
Mn       1.66634942       4.00873896       1.07668503       0.02331498      -0.01888418      -0.03159839
Mn       2.01507925       2.83755926       3.84890622       0.03869480       0.00502521      -0.00612627
C        1.92144042       4.03129474       5.41048691       0.02080013      -0.00738962      -0.01796120
Mn       0.02852137       4.60109157       5.48844478      -0.01763256      -0.00533908      -0.01090896
C        3.06149581       1.22712214       4.72559511       0.00318763      -0.01350436       0.01086067
Mn       4.43746349       3.09423915       1.97257408      -0.01147214       0.01709199       0.00002411
C        0.30526152       1.82689825       3.65885108       0.01227140       0.03383065       0.01088327
Mn      -0.01876456       1.88568287       5.62013812       0.02406976       0.00097069       0.01348483
C       -0.09049433       3.20480608       0.97273651      -0.00239387       0.01328240       0.00318373
Sn       3.09029255       5.16843782       2.82875481      -0.03833885       0.01541074      -0.02998944
Mn       3.16857289       2.43950568      -0.15624535      -0.00089175      -0.03256553       0.00705793
C        0.75243550       6.49074711       2.30070342      -0.03821172       0.02502402       0.01581912
Mn       2.57659483       5.86979647       5.23845511      -0.00674229      -0.00434290      -0.02221164
6
Lattice="3.9058623942492536 -0.2113635744023378 1.43825877565097 0.9388944298546528 3.841232502921133 1.3259888973383178 -0.0748888457180883 0.00493342062927611 4.081085833693524" Properties=species:S:1:pos:R:3:forces:R:3 sample_seed=85018 sample_index_within_seed=0 benchmark_method=FT0 dft_verified=F structure_index=0 total_energy=-54.779380798339844 stress="0.047865767031908035 0.007136906031519175 0.0035653901286423206 0.007137317210435867 0.03344946354627609 0.006800507195293903 0.0035643770825117826 0.006800608243793249 0.04553231596946716" pbc="T T T"
Mn       3.53983276       0.86185783       2.07251617       0.00255030      -0.00234549       0.01465830
V        1.58207022       2.71761958       1.87543455      -0.02204217      -0.02728397       0.00069240
C        3.40543992       2.79059917       3.13515491      -0.01038930       0.01995011      -0.01961340
Mn       3.90153155       2.98558557       5.23631389      -0.00349551       0.00745594       0.00865718
Mn       1.16330201       0.28419619       2.48176386       0.00868008      -0.01471350       0.00395574
Mn       2.20716369       1.49372588       4.10658710       0.02469663       0.01693690      -0.00835018
16
Lattice="4.3928880894861395 -0.28527147276925663 -2.1620486254757574 -1.3123426426985891 5.023582265839996 -2.726122320454762 -0.1979988345028674 -0.17088869776472115 7.473563107141514" Properties=species:S:1:pos:R:3:forces:R:3 sample_seed=85019 sample_index_within_seed=0 benchmark_method=FT0 dft_verified=F structure_index=0 total_energy=-144.1161346435547 stress="0.01476995088160038 0.002108311513438821 -0.0004599607491400093 0.0021064484026283026 0.017740100622177124 -0.0011565954191610217 -0.00046008979552425444 -0.001156261540018022 0.015225598588585854" pbc="T T T"
Mn       1.98933366       0.47780429      -0.19915226       0.00098735       0.00011480       0.00299323
Mn       2.93181936       1.72105210      -2.52394661       0.00657943       0.04995105      -0.01786166
Mn       0.74126483       4.06206363       2.58593823      -0.00292513       0.00027445       0.00456797
Mn      -1.37955207       4.84265474      -1.56925593      -0.00384471      -0.01343232      -0.00178432
Mn       1.58000724       2.92169947      -0.49253817      -0.00229740      -0.00085482       0.00963862
Mn       1.64764722       0.01758032       3.13121910      -0.00610115      -0.00914234       0.00037897
Mn       2.04087061       2.13834244       1.83763160       0.00965689       0.00430965       0.01090437
Mn      -0.51866232       2.19392882       1.94448204       0.00716221      -0.00610399      -0.01120871
Mn       3.69267213       0.23797795       1.52590047       0.00001130      -0.00387606      -0.00285643
C       -0.97767581       4.03709231       1.54850576      -0.00532934      -0.00477439       0.00731035
C        0.44551124       1.53236403       0.35516567      -0.00674144      -0.01444717      -0.00955078
C        0.85325013       1.86478342       3.33878248       0.00249797       0.00307082       0.00059041
Mn       2.77571846       4.43407634       1.21277504      -0.00046536       0.01113528       0.00666818
Mn      -0.02759042       2.86408095       4.66897053       0.00469736      -0.00216922       0.00341871
C        0.57480066       4.31256495      -1.39087386      -0.00289885      -0.00427139       0.00269979
C        3.30813834       1.09855695       3.15093136      -0.00098902      -0.00978415      -0.00590873
4
Lattice="3.736732571771399 -0.006691812722062202 1.5734059327015917 1.5480360400956186 3.402756520518018 1.5666171358278966 0.024644525295140524 0.025273989669003894 5.167609147122427" Properties=species:S:1:pos:R:3:forces:R:3 sample_seed=85020 sample_index_within_seed=0 benchmark_method=FT0 dft_verified=F structure_index=0 total_energy=-25.168861389160156 stress="-0.01702767238020897 0.019126223400235176 -0.02876797877252102 0.01912652514874935 -0.048890985548496246 -0.02379794232547283 -0.028766443952918053 -0.023796917870640755 0.036670152097940445" pbc="T T T"
Pt       1.52240997       0.73107483       1.37770437       0.00005542      -0.00039645       0.01383044
Si       3.58665210       2.06537481       6.93465038      -0.01870555      -0.01097636       0.02269944
Pt       4.49074520       2.64215483       4.79043266       0.00175362       0.00133380      -0.01041007
Pt       0.39946489       0.01565956       4.04214692       0.01689655       0.01003905      -0.02611987
12
Lattice="4.408757083716839 -0.025901312204382698 -1.0605024127171776 -0.4905058262934508 5.130868191561166 -1.3252259766184944 -0.08931078358088602 -0.03060360433893334 5.147087259508482" Properties=species:S:1:pos:R:3:forces:R:3 sample_seed=85021 sample_index_within_seed=0 benchmark_method=FT0 dft_verified=F structure_index=0 total_energy=-109.26277923583984 stress="0.013150637038052082 0.002799395704641938 0.004602817352861166 0.0027991998940706253 0.01425215695053339 -0.0038403195794671774 0.004605340305715799 -0.0038380236364901066 0.02904571406543255" pbc="T T T"
Mn       1.93957901       4.71054707      -1.11695454       0.00985301      -0.00471312       0.00610197
Mn       1.75045445       0.37937345       2.81340564      -0.01901901      -0.03465819      -0.00878810
Mn      -0.20199413       3.42180048      -0.84826638       0.02267345       0.04301831      -0.00136415
C        2.68907782       4.43739985       2.36304299      -0.00127916       0.00619122      -0.00349180
Mn       3.52707874       4.19710124       0.69514886      -0.00872835      -0.00003280      -0.00447494
Mn       2.25448834       2.29832295      -0.45890422      -0.00434064       0.02393547      -0.01972878
C        0.72963696       1.88593054       3.55506384       0.00013265      -0.00203679       0.00410775
Mn       3.70250711       1.47922719       1.36176220       0.00573204      -0.03371945       0.02674064
Mn       1.45074366       2.88733939       2.02044960       0.00373670      -0.01106626      -0.02503604
C       -0.24415561       2.63877856       0.90939127      -0.02313033       0.01478475       0.01512160
Mn       0.09820694       0.91432544      -0.05740393      -0.00359464       0.01118428       0.03259711
C        1.79317682       1.16312661       1.05503419       0.01796451      -0.01288749      -0.02178539
12
Lattice="5.201670470280487 -0.014660655205028664 -1.6261072960334058 -2.892003604014888 4.361439572248052 -1.5269431157641267 0.01362815493110889 0.013263047254337836 5.444219246001354" Properties=species:S:1:pos:R:3:forces:R:3 sample_seed=85022 sample_index_within_seed=0 benchmark_method=FT0 dft_verified=F structure_index=0 total_energy=-104.63862609863281 stress="-0.008168293163180351 0.0010367472423240542 0.0014711279654875398 0.0010352303506806493 -0.0029281300958245993 -0.00027198914904147387 0.0014717947924509645 -0.00027162200422026217 -0.00782924797385931" pbc="T T T"
Al      -0.26836174       0.95068813       2.68213799      -0.01730925       0.02080163       0.00590325
C        3.72622584       0.76138271       2.70037600       0.01971454      -0.01147874      -0.01074822
Mn      -1.84024748       2.93807007       1.54226646       0.00987019      -0.01340971       0.01953354
Mn       2.19851501       0.75083292       1.49885925       0.02871034       0.00697867       0.01250848
Mn       0.86596061       3.16980493       1.12916208      -0.00770403      -0.02643923       0.00633800
C       -2.27653280       3.97902752      -0.04702056      -0.00079885       0.00255752       0.00739269
Mn      -1.40988867       2.70941548       4.24998205      -0.02887218       0.02683152       0.02730723
Mn       1.28333521       2.91938909      -1.60789867      -0.01095442      -0.01755098      -0.02160782
Mn       0.12183138       0.74928764      -0.02819679       0.00441727      -0.01182484      -0.00823165
Mn       2.60251574       0.55675542       4.24717831       0.01892187       0.01273870      -0.04342833
C       -0.27938976       2.99452422       2.70117790      -0.01450405       0.01273955       0.00378955
C        1.72774166       1.85775448      -0.03478693      -0.00149159      -0.00194423       0.00124337
10
Lattice="2.663931938278204 -0.007700327588064494 -0.0070419152731424385 0.006662928390773545 5.32627234725116 -3.454630051645772 0.01869447815030816 -0.15256732471033294 7.173479529184371" Properties=species:S:1:pos:R:3:forces:R:3 sample_seed=85023 sample_index_within_seed=0 benchmark_method=FT0 dft_verified=F structure_index=0 total_energy=-90.83889770507812 stress="-0.02821296453475952 0.00019221045658923686 0.00011770420678658411 0.00019285856978967786 -0.03793388605117798 0.0015936527634039521 0.00011838352656923234 0.0015956744318827987 -0.04595409706234932" pbc="T T T"
Mn       0.23506618       3.27906179       4.43983299      -0.00135816       0.01251030      -0.01525159
Mn       0.22792265       0.77536938       4.56376251      -0.00199490      -0.01600946       0.00810707
Mn       1.56564171       4.69293065       2.45964227       0.00199256       0.01819418      -0.00664663
Mn       1.54848786       2.19178675      -1.00290547       0.00221464       0.00965335      -0.02962786
Mn       0.22639801       3.42949487       0.85342757      -0.00230605      -0.01117186       0.02739713
C        1.55193550       4.76882426      -2.80892558       0.00000159       0.03041707      -0.02854870
Mn       1.55742283       4.75174740      -0.82717948      -0.00120482      -0.03991508      -0.02507061
C        0.22291541       0.85216117       2.65890836       0.00004311      -0.03055124       0.02905014
Mn       1.55848556       2.18944362       2.58365617       0.00131872      -0.01407194       0.01578721
Mn       0.21742597       0.86914444       0.67730818       0.00129352       0.04094428       0.02480343
4
Lattice="3.692808480650282 0.01213774796628107 2.108595101197615 1.2464561148159732 3.4724010090614676 2.0929189107951793 0.017322888018805525 0.009975769381918773 4.23601065046841" Properties=species:S:1:pos:R:3:forces:R:3 sample_seed=85024 sample_index_within_seed=0 benchmark_method=FT0 dft_verified=F structure_index=0 total_energy=-34.23649978637695 stress="-0.010689621791243553 -0.04496647045016289 -0.03766801580786705 -0.04496564343571663 -0.014216865412890911 -0.0007380722090601921 -0.03766731917858124 -0.0007385413045994937 0.006180655211210251" pbc="T T T"
Mn       1.40551648       1.72720195       1.49404193       0.00218803      -0.00011896      -0.00117376
Mn       3.87704244       0.87345571       5.72790652       0.00193920       0.01338975       0.01405662
Mn       3.88577892       3.47304362       5.71496811      -0.00533727       0.00582636      -0.00890782
Rh       2.64540790       2.60223853       3.60433087       0.00121012      -0.01909717      -0.00397500
10
Lattice="2.8038586581788185 0.0043249962773705556 -0.009394279350540253 -1.4056778590568741 2.426178690526072 -0.015990573929271227 0.04914232535456192 0.12687929259707567 14.661322018704979" Properties=species:S:1:pos:R:3:forces:R:3 sample_seed=85025 sample_index_within_seed=0 benchmark_method=FT0 dft_verified=F structure_index=0 total_energy=-88.19374084472656 stress="-0.006765605416148901 9.359073010273278e-05 -4.169718158664182e-05 9.21065584407188e-05 -0.0059412079863250256 0.0002084111765725538 -4.183767669019289e-05 0.00020851878798566759 -0.005982901435345411" pbc="T T T"
Mn       0.27376709       2.45330500       6.69460564       0.00036492      -0.00171590       0.03154594
C        0.28622973       0.86152351       9.91505439      -0.00131214      -0.00003544       0.02140145
Mn       0.28709358       2.48986962      11.00133129       0.00316053      -0.00025281      -0.01643425
C        1.67347692       1.63657699       5.61867182       0.00220142       0.00182645      -0.04752980
Mn       1.68320507       1.66368279       8.81493799       0.00067781       0.00137825      -0.00938004
Si       1.69879914       1.69999862      12.94641741      -0.00073138       0.00071933       0.00525748
Mn       1.66537664       1.60903589       2.42142281      -0.00458376       0.00272825      -0.03165758
C        0.25792385       2.40754575       1.32719059       0.00228912       0.00146056       0.00099905
Mn       0.26964249       0.81573975       4.54435566      -0.00173802      -0.00021061       0.03618723
Mn       0.25666666       0.78014105       0.24205260      -0.00032844      -0.00589806       0.00961024
11
Lattice="4.474968037196027 0.0002553117197532225 -1.4947774291467066 -1.6429447135291957 4.180949860622991 -1.4384643724215107 0.04804421574206276 -0.005875206727795359 5.855012427017406" Properties=species:S:1:pos:R:3:forces:R:3 sample_seed=85026 sample_index_within_seed=0 benchmark_method=FT0 dft_verified=F structure_index=0 total_energy=-99.31631469726562 stress="-0.03214086964726448 -0.00031905455398373306 -0.0035591009072959423 -0.0003222944214940071 -0.030699094757437706 -0.002343462547287345 -0.003556524170562625 -0.002343978965654969 -0.03107796236872673" pbc="T T T"
Mn       2.52366993       2.36422257       2.87826657      -0.01014230      -0.00016483       0.00298161
Mn       1.10748311       0.27417416       4.34452861       0.00197730       0.00665322      -0.01991221
Mn       3.78992160       0.74455376      -1.12925449       0.01186346       0.01098084       0.01007473
Mn       0.02112007       1.75625459       2.49067346       0.00142494      -0.00392319      -0.00222164
Mn       1.95569823       1.57790844       0.51001566       0.00865966      -0.04332075       0.00381437
Mn       0.50002601       2.98990522      -1.09659392       0.01564351       0.00344807       0.00368455
Mn       1.21452175       3.99463341       1.02946760      -0.00600082       0.01281616      -0.01857734
C        0.99691309       3.41267174       2.89448453      -0.00834280       0.02071822      -0.00628049
C       -0.42088550       1.32066085       4.35492132       0.01209095       0.00851414       0.01310771
C        1.09327150       0.29181848       1.41859618      -0.01678415      -0.01029758       0.00214615
Mn       3.05156388       3.18197964      -0.62369221      -0.01038977      -0.00542412       0.01118258
16
Lattice="5.126342166978995 -0.0880732020454772 0.21754530110586354 -2.508128122015018 4.4285354535348205 -1.8006369156343511 -0.05409199490721538 0.1915873099585403 6.8431436159617585" Properties=species:S:1:pos:R:3:forces:R:3 sample_seed=85027 sample_index_within_seed=0 benchmark_method=FT0 dft_verified=F structure_index=0 total_energy=-144.80856323242188 stress="0.022650012746453285 0.0004995561903342605 -0.0016609154408797622 0.0004971810267306864 0.02759254164993763 -0.002744857920333743 -0.0016597661888226867 -0.002744664205238223 0.025000199675559998" pbc="T T T"
Mn       0.52372474       2.90538404      -0.51438111       0.00928616       0.01020706      -0.00304879
Mn       3.98975995       1.33499722       0.81637964      -0.00188763      -0.01155397       0.00304434
Mn       1.87513378       0.56067353       6.22530209       0.01993548      -0.00953543      -0.01309058
Mn       1.54443282       2.08719822       1.55113996      -0.00538665      -0.00108168      -0.00408888
C       -0.18775673       1.25455862       2.50836792      -0.01432390      -0.01281387       0.00573330
C        2.36207901       0.27589408       1.31002176      -0.00890563      -0.00063334       0.00124183
Mn       2.14461208       3.84900261       4.92785504       0.02867961       0.00475231       0.00199464
Mn       0.92242075       1.86095123       4.05622938      -0.01937703       0.04545494      -0.01256776
Mn       2.11791470       4.29886561       2.62216664      -0.00013426       0.00353700      -0.00160632
Mn      -0.76107460       3.12459997       2.46074522      -0.01059705      -0.01696312      -0.00255805
C       -0.01207462       1.23557816       5.74173457       0.01628819       0.00693011      -0.00394323
C        2.42802566       2.35458394      -0.31047875       0.00773110       0.00010689       0.00193124
Mn       3.62366829       2.08695303       5.10021212       0.00711943      -0.00582436       0.00300135
Mn       2.99265892       0.64763953       3.08734630      -0.02252741      -0.00631589       0.01146650
C        2.58785940       2.56861920       3.38213618      -0.00272477      -0.00200536       0.00275119
Mn      -1.82118367       4.02864510       0.18881240      -0.00317571      -0.00426108       0.00973900
12
Lattice="4.653278162708583 0.002027370206310441 -1.4129638381656087 -2.112811910994091 4.147060792177374 -1.4096530558459643 -0.013875620626896089 0.0028298533761999837 5.594805620221134" Properties=species:S:1:pos:R:3:forces:R:3 sample_seed=85028 sample_index_within_seed=0 benchmark_method=FT0 dft_verified=F structure_index=0 total_energy=-107.70870208740234 stress="-0.038572218269109726 0.0005801625666208565 -0.005403414368629456 0.0005789957358501852 -0.033275410532951355 -0.0014959800755605102 -0.005402540788054466 -0.0014950040495023131 -0.040745750069618225" pbc="T T T"
C        1.85814818       2.27277124       0.18981481      -0.00550725       0.01043622       0.02835301
Mn      -1.00655255       3.00522838       4.29142432       0.02023172      -0.00040039       0.03502043
Fe      -1.85167846       3.92133973       2.06479748      -0.01995333      -0.00540450       0.00052863
C        0.59489779       0.18799487       1.59348317       0.01823471       0.01823543       0.03849220
Mn       0.29731683       3.61976294       0.76372756      -0.01088540       0.00045589      -0.00114748
Mn       1.50024412       3.27755865      -1.46297569       0.00288412      -0.00745676      -0.01707882
Mn       0.22685949       1.19850250      -0.04758665       0.00068265      -0.01546756      -0.01882808
Mn       2.36970679       0.94056898       4.29784905       0.02001511       0.00726345       0.01831847
C        0.06205644       3.13781608       2.65241272      -0.00037664      -0.01238413      -0.02618453
C        3.44868576       1.06842451       2.64984276      -0.00619282      -0.00947250      -0.02643805
Fe       1.52391869       1.84119546       2.07038848       0.01062454       0.00325975      -0.02590099
Fe       3.67375393       1.55292478       0.76809596      -0.02975735       0.01093534      -0.00513482
8
Lattice="4.080765133780381 -0.028742087742978956 2.106160829166354 1.526252727722087 3.787036748678735 2.101261002145005 -0.0427159453805865 -0.021410116942613622 5.086533246307096" Properties=species:S:1:pos:R:3:forces:R:3 sample_seed=85029 sample_index_within_seed=0 benchmark_method=FT0 dft_verified=F structure_index=0 total_energy=-73.07686614990234 stress="0.08700928092002869 -0.0005232517723925412 0.008272791281342506 -0.0005201014573685825 0.086624875664711 0.0050908843986690044 0.008272881619632244 0.00508864177390933 0.0718359649181366" pbc="T T T"
Mn       1.34625781       2.51510037       3.76566371      -0.00506639      -0.00099730      -0.02457095
Mn       3.30407999       3.71855435       5.19987923       0.03550376      -0.02337410      -0.02289745
Mn       1.78550979       1.81680014       6.30691423      -0.00259563      -0.01408327       0.00904374
Mn       3.63585695       1.28457523       4.52619387      -0.01046065       0.04073423      -0.01584040
C        1.43256421       3.45950216       5.41473035      -0.00608288      -0.01419097      -0.00356398
Mn       4.07345910       0.58799159       7.06762204       0.01051588       0.00351027       0.03165128
Mn       3.64068360       3.17502436       7.73732777      -0.02227007      -0.00429109       0.01288651
C        2.73181874       1.56235889       2.87290079       0.00045616       0.01269203       0.01329122
4
Lattice="4.596228497330914 0.006878641052709148 2.6635891497336357 1.5034132819390473 4.34278578419719 2.6798281917049285 -0.0034339385528953876 -0.01055887893286735 5.323501202589092" Properties=species:S:1:pos:R:3:forces:R:3 sample_seed=85030 sample_index_within_seed=0 benchmark_method=FT0 dft_verified=F structure_index=0 total_energy=-30.282453536987305 stress="-0.061706237494945526 -0.040677860379219055 0.00037588528357446194 -0.04067785292863846 -0.003819298231974244 0.024067940190434456 0.0003761841799132526 0.024068143218755722 -0.007360834628343582" pbc="T T T"
Eu       3.66879611       3.86850789       3.98520456       0.00682828       0.00610039       0.00785510
Eu       0.62220428       1.69379925       3.98048165      -0.01295592      -0.01506137      -0.01303892
Au       2.13385950       2.76822142       6.63024522       0.01336993       0.01081817       0.01955013
Au       3.69849643       0.61576931       3.98654583      -0.00724227      -0.00185720      -0.01436632
10
Lattice="3.3146939795819 0.005412854575384688 0.013112594373804713 -0.010344040248254449 6.281747695899367 0.11903980122960388 -0.02986635586786473 0.0346740364142373 7.105533125126973" Properties=species:S:1:pos:R:3:forces:R:3 sample_seed=85031 sample_index_within_seed=0 benchmark_method=FT0 dft_verified=F structure_index=0 total_energy=-74.88253784179688 stress="-0.017001669853925705 0.005107302684336901 -0.017435222864151 0.005107407923787832 0.023282365873456 -0.006513762287795544 -0.01743544079363346 -0.006513604894280434 0.0007140410016290843" pbc="T T T"
Mn       0.07939261       5.25405461       2.43843928      -0.00081907       0.00388605       0.00604641
Mn       1.72883884       1.19618553       5.84812832      -0.00244013       0.00496936      -0.01753172
As       1.72655668       3.54235705       5.53169809      -0.00106056      -0.00607602       0.00104712
Mn       0.07783974       2.41580598       3.86964897      -0.00020329       0.00938380       0.01956928
Mn       1.74589953       4.99856579       0.32681937       0.00052871      -0.00256065      -0.00916777
As       0.09557172       0.43448138       0.34721164       0.00227776      -0.00056075      -0.00002372
Mn       0.06710108       5.40623221       5.30759751       0.00018123      -0.01068035       0.01273055
As       1.73943297       0.27089849       3.64334672       0.00001567       0.01782617      -0.00485153
Mn       0.09215205       2.85480036       0.26506394       0.00109383      -0.02064352       0.00041315
As       1.74099203       3.36308811       2.13003717       0.00042570       0.00445591      -0.00823182
