7
Lattice="4.771322727203369 0.0 1.1538296937942505 2.2446042600245724 4.209940658574187 1.1553398370742798 0.0 0.0 10.485669136047363" Properties=species:S:1:pos:R:3 pbc="T T T"
Eu       2.95496657       0.78507557       5.99251105
Eu       2.35008237       3.28400001       8.51440407
Pt       2.21247322       0.33884919       9.08366280
Eu       3.77365028       4.13973841       2.58873132
Pt       3.09384224       3.73126701       5.42005129
In       4.36089847       1.62743955      10.64328784
In       5.71672003       2.44151558       5.01939096
