15
Lattice="5.901508331298828 0.0 2.382608413696289 -0.13196241915928006 5.837307094159396 2.1481642723083496 0.0 0.0 6.86115837097168" Properties=species:S:1:pos:R:3 pbc="T T T"
Mn       0.12683583       2.60138727       1.78593744
Mn       3.20075633       1.81761685       4.18880174
Pt       5.11422903       5.80648531       6.48644981
Mn       4.24504585       3.13037872       6.72260817
Pt       2.03262480       0.73950765       2.02631872
Mn       1.20254478       3.94851460       4.32485526
Mn       0.75386770       5.49043349       8.75979416
Pt       1.60804918       2.28686339       6.37211979
Pt       4.78601591       1.51951286       8.88134626
Mn       0.43082014       1.07887665       4.20138564
Au       3.64987110       0.39830162       6.60672719
Pt       2.60160243       3.51080292       8.90757796
Pt       2.29710234       5.06272586       6.54756385
Pt       5.53521451       4.23858714       8.86858895
Au       3.99080210       4.46701194       4.31976764
