8
Lattice="3.6954360008239746 0.0 -0.9461548328399658 -0.2449607616468512 3.7056555228296233 -0.9568189978599548 0.0 0.0 7.696139335632324" Properties=species:S:1:pos:R:3 pbc="T T T"
Mn       0.86607996       1.50142098       2.52412207
Ni       2.59033620       3.35415685       1.57170158
Mn       1.72961499       2.42751945       5.89845717
Ni       3.13818870       1.95678953       3.70728156
Mn      -0.00006910       0.57155986       6.84158066
Ni       2.28966648       1.04370309       0.39525677
Pt       0.31237768       2.88992285       0.35939007
Pt       1.41979526       0.11021124       4.68728320
