8
Lattice="4.764561176300049 0.0 0.007415344472974539 -2.366247137092615 4.135652507251991 0.00714468490332365 0.0 0.0 10.125357627868652" Properties=species:S:1:pos:R:3 pbc="T T T"
Cu       1.17839987       3.88802016       5.56836810
Sc      -1.20992577       2.50857238       6.10599005
Eu      -1.21063706       2.51055353       1.03666937
Cu       1.16750425       1.12707849       0.42775975
Eu       1.16470063       1.13143754       3.65252815
Eu       1.17795809       3.88746306       8.56254479
Cu       1.16343409       1.13051821       6.64507944
Cu       1.17745259       3.88793906       1.67806076
