20
Lattice="5.336928844451904 0.0 1.5576820373535156 2.3836748618411714 4.792694726503843 1.5413486957550049 0.0 0.0 9.605462074279785" Properties=species:S:1:pos:R:3 pbc="T T T"
Eu       6.12457049       2.73633664       6.87784550
Eu       4.09494735       1.47822234       4.04597406
Fe       1.69744734       3.29604345       2.27492523
W        5.11921638       2.10673458      10.25025635
Eu       2.74684543       3.95043625       8.43198111
O        5.07136126       0.66720089       6.40048455
Eu       2.15656305       0.27102974       0.88654751
Fe       3.63399262       4.50789115       5.43103609
O        1.25903002       1.19593277       7.79658209
Mn       3.19627140       0.92382908       7.05713462
O        2.45202316       4.28089397       3.82008562
O        3.62056856       3.02184668      11.14446930
O        5.16574430       3.55797911       4.48135290
O        2.99723859       2.72223213       6.13323289
O        3.97636576       1.87931090       8.70705299
O        6.25143998       2.34730308      11.80998145
O        1.88321569       1.51965960       3.18981234
O        4.81243425       4.72973546       7.04608706
O        4.52950541       0.34575589      10.89789554
O        5.71423710       3.84378081       9.59678959
