12
Lattice="4.681460380554199 0.0 0.5387275218963623 2.2256546835067477 3.99736757786404 1.0974040031433105 0.0 0.0 6.841962814331055" Properties=species:S:1:pos:R:3 pbc="T T T"
Zn       5.34205002       1.42015526       3.06246073
Zn       3.04149717       0.08745602       2.51769486
Fe       3.54586493       1.01091003       4.92521072
Fe       5.86624948       2.32865115       5.46951937
Fe       4.83951080       0.49578362       7.49840873
B        6.44892422       3.42044559       7.03387087
Fe       2.96304023       2.75205691       3.07169975
Fe       2.45769366       1.85154861       7.51261594
Fe       3.46832051       3.65167961       5.47062603
B        1.85230425       0.75224499       5.94388426
B        4.15775204       2.08324576       6.48983614
Fe       4.74064738       3.17230810       8.05481814
