16
Lattice="5.133536338806152 0.0 0.2586100995540619 -2.4409449478889096 4.580498561912218 -1.9521982669830322 0.0 0.0 6.8584465980529785" Properties=species:S:1:pos:R:3 pbc="T T T"
Mn       0.54131827       2.91510402      -0.48683312
Mn       3.92780582       1.61664577       0.80573794
Mn       1.85810284       0.53037679       6.25723113
Mn       1.52721897       2.05927658       1.56184637
C       -0.11846016       1.24780681       2.54141662
C        2.57524185       0.17472761       1.15716111
Mn       2.11075675       3.93758553       4.89062024
Mn       1.06383115       1.72587507       4.07497287
Mn       2.25853097       4.32110076       2.46188105
Mn      -0.56018807       3.25653311       2.49406803
C       -0.01978047       1.04962574       5.74692081
C        2.43334505       2.53261616      -0.33972247
Mn       3.67825443       2.09148422       5.07196675
Mn       3.03875328       0.60849687       2.97862752
C        2.67732300       2.60389896       3.32894522
Mn      -1.65458664       4.17267317      -0.06998882
