8
Lattice="4.603453638372505 -0.0006019938516834638 -0.0004037140034117041 0.0006444139103589263 4.650116910806064 0.0016915147630946529 0.00037758323974178406 -0.0015737451165854985 4.604621514516021" Properties=species:S:1:pos:R:3:forces:R:3 structure_index=0 total_energy=-56.739986419677734 stress="-0.06785167008638382 0.0004480125498957932 -0.000238687134697102 0.00044758341391570866 0.028387168422341347 0.0012083761394023895 -0.0002377330674789846 0.0012094691628590226 -0.03496362268924713" pbc="T T T"
Eu       1.77370267       3.72183021       3.47297148       0.01027281       0.00001700       0.00082530
Fe       4.07507901       1.39696552       3.47241472       0.00161523       0.00191441       0.00164744
Na       4.07531124       3.72208687       1.17114971      -0.00138123       0.00202435      -0.00260959
O        1.77339285       3.72441324       1.17072316       0.00215642       0.00623324       0.00003886
O        1.77060865       1.39718838       3.47298325       0.01030951      -0.00483487      -0.00342518
Fe       1.77171281       1.39547364       1.16915774      -0.00188738       0.00052354       0.00332265
O        4.07567181       1.39785740       1.16890292      -0.00339588      -0.00615880       0.00154552
O        4.07691722       3.72067047       3.47322039      -0.01768937       0.00028128      -0.00134504
