12
Lattice="3.545246223120724 0.00030800078319104674 0.00020056905156375394 -7.387399006256927e-05 4.761608704328278 -1.59911269333448 -0.0007803579627284651 -0.01384999758202519 7.952764305390307" Properties=species:S:1:pos:R:3:forces:R:3 structure_index=0 total_energy=-83.21504211425781 stress="0.05753987282514572 0.0034064713399857283 -0.004005256108939648 0.0034064690116792917 -0.0006902800523675978 -0.02936832420527935 -0.004005095921456814 -0.029368072748184204 -0.0006512851687148213" pbc="T T T"
Fe       0.41910729       0.42992212       6.68725865       0.00096761       0.00607500      -0.01275134
Fe       2.19252073       2.83884179       1.85297101      -0.00061483      -0.00303308       0.02369330
Ni       0.42048831       3.61138882       0.31249892      -0.00244871      -0.00566419       0.03025179
Fe       0.41918465       4.41319902       2.69586799       0.00082139       0.01170526      -0.01842047
Fe       0.42045257       1.20723784       1.09111797      -0.00177718      -0.01191793      -0.03680255
Ni       2.19299355       4.40510547      -1.28339810      -0.00151443       0.01907898       0.00621757
Ni       2.19316317       2.03541255      -0.50557250      -0.00247306      -0.00988993       0.02571711
Fe       0.41882851       2.02094966       3.52276393       0.00277990      -0.01510395       0.01501117
Ni       2.19151339       3.60228137       4.30692135       0.00135292       0.01185797      -0.02244563
Ni       0.41908490       2.80640259       5.87338217       0.00080693      -0.00163839      -0.01670735
Ni       2.19240760       0.43961206       2.68575279      -0.00012856       0.00214899       0.01804745
Ni       2.19138577       1.22500397       5.08368149       0.00222803      -0.00361872      -0.01181108
