7
Lattice="3.1771542856987924 0.02685134940655401 -0.5948810367551411 -1.889028471230409 5.83257815301518 -1.0452158337692894 0.19156647197425994 0.22348672234020023 9.21807219459578" Properties=species:S:1:pos:R:3:forces:R:3 structure_index=0 total_energy=-45.267921447753906 stress="-0.00886699091643095 0.004054488614201546 0.006937120109796524 0.004054568242281675 0.0030174136627465487 0.016159899532794952 0.006937118712812662 0.016160111874341965 0.013617381453514099" pbc="T T T"
Se       1.10343544       4.28780483       4.02900065       0.00176805       0.00621055       0.02251732
V        1.26811713       0.29957786       4.73511051      -0.00489047       0.00588436      -0.04011384
V        0.65092293       4.52386949       1.62102061       0.00326969       0.01567547       0.02925494
Se       0.81747759       0.54883453       2.33696054      -0.00562400      -0.00778848      -0.04391670
V       -0.63133474       2.41910114       3.46247139       0.00210378      -0.02384877       0.01503487
Se      -0.16293594       1.85672066       5.94328093       0.00066989      -0.00452388      -0.00073302
Se       2.07780596       2.97935113       0.39076901       0.00270312       0.00839085       0.01795650
