17
Lattice="5.3620429039001465 0.0 -1.8216067552566528 -1.415820638919527 5.154002391952692 -1.523508071899414 0.0 0.0 8.569655418395996" Properties=species:S:1:pos:R:3 sample_seed=85000 sample_index_within_seed=0 benchmark_method=C0 dft_verified=F pbc="T T T"
Mn       3.96094404       3.57142331       4.38247519
O        2.72367431       2.28998929      -0.69563695
Mn       1.42449049       1.06813719       0.36720745
Li       1.34014117       3.53032453      -1.21799419
Mn       3.17893198       0.82422126       6.53263018
F       -1.03645441       4.50515972       2.92303015
F        3.66655641       4.87348628      -2.31311169
Mn       3.88056772       0.18215467       3.28394993
Mn       0.78147424       3.27991703       3.97262122
F        0.74810165       2.41714977       1.96357069
F        4.53996104       2.09625036       2.83925159
F        0.98875213       4.86507262       0.30893444
Mn       4.38479370       3.47269796      -0.71896605
O        2.32863923       4.60554213       3.59035986
O        0.41262055       4.54546315       5.92392190
F        2.42235363       1.99960998       4.73295333
F       -0.26893687       2.30644152      -0.71621301
7
Lattice="5.375202178955078 0.0 0.0032818098552525043 0.01567746000948966 5.377796686543173 0.00217432901263237 0.0 0.0 5.535987377166748" Properties=species:S:1:pos:R:3 sample_seed=85001 sample_index_within_seed=0 benchmark_method=C0 dft_verified=F pbc="T T T"
Eu       4.66213212       4.42571519       2.90760798
P        4.66528536       4.42252388       0.13983057
Fe       1.96973517       4.42373873       0.13813816
Fe       4.65566029       1.73312357       0.13772634
Cl       4.65227097       1.73599866       2.90533697
Cl       1.96466780       1.73830640       0.13205602
Cl       1.97629360       4.42081026       2.90577975
19
Lattice="6.301930904388428 0.0 1.1411280632019043 0.31719477928993006 5.5249908808126404 2.9510910511016846 0.0 0.0 6.221107006072998" Properties=species:S:1:pos:R:3 sample_seed=85002 sample_index_within_seed=0 benchmark_method=C0 dft_verified=F pbc="T T T"
Fe       0.87183507       4.45634224       4.97089234
Co       5.97320203       0.14849880       5.22156341
Fe       0.27691125       1.44692748       1.91534895
Co       5.56062253       2.51811184       5.42865781
Fe       3.51601470       1.28954408       5.25864933
Fe       3.57301499       2.94544547       6.98155120
Co       3.86403955       4.56113789       8.74239979
Co       1.54430270       3.63533924       7.38000304
Co       4.81156651       5.13230993       6.20850909
Fe       3.26270724       3.89086142       4.80053016
Co       1.84151931       2.68011134       3.31985309
Fe       2.66435675       0.87229145       1.48137698
Co       1.58244108       5.27793703       9.10528280
Co       1.26389814       2.00407449       5.61956575
Co       5.83852801       4.02859681       3.82661159
Fe       2.11022335       0.16485261       3.69227916
Co       4.22981681       2.11589393       3.14005506
Ni       5.70791685       3.28217874       7.73903445
Co       5.13565937       0.87066801       7.33949757
11
Lattice="4.444487571716309 0.0 0.8056395649909973 -0.8336515745504379 4.357169536080166 0.705417811870575 0.0 0.0 4.463974952697754" Properties=species:S:1:pos:R:3 sample_seed=85003 sample_index_within_seed=0 benchmark_method=C0 dft_verified=F pbc="T T T"
Fe       2.73427494       2.66898974       3.15298205
Fe       0.75334865       3.34382629       1.50395082
Ni       1.96874924       0.21341068       3.13165377
Fe      -0.06104669       0.82895388       1.57213930
Ni       2.35525068       1.44378240       0.82077772
Co       0.32604773       2.05267531       3.80258009
H        3.74831798       2.41208964       1.56275267
H       -0.25810147       3.59518475       3.09701268
H        2.15664835       4.24757399       2.31398644
Co       3.16121911       3.95944484       5.31766682
H        1.33336997       1.76059989       2.34627880
8
Lattice="3.994941234588623 0.0 -1.5036226511001587 -0.48060886218181825 4.754776528734458 -0.5679391026496887 0.0 0.0 4.786491870880127" Properties=species:S:1:pos:R:3 sample_seed=85004 sample_index_within_seed=0 benchmark_method=C0 dft_verified=F pbc="T T T"
Ga       2.35397293       0.97351400       0.04929350
Fe       0.54498836       2.31861693       1.20781605
Fe       1.25938336       0.34743980       2.59079024
Zn       3.40217069       1.70935714       2.25462593
Zn       1.55019595       3.06820983       3.41691992
Fe      -0.28180354       4.44040332      -0.23904525
Fe       2.55902480       3.76548541       0.96349994
H       -0.14775730       3.86101475       1.37046043
14
Lattice="4.122189521789551 0.0 2.2822377681732178 1.2665595965043792 4.240981030456646 2.349301338195801 0.0 0.0 5.148281574249268" Properties=species:S:1:pos:R:3 sample_seed=85005 sample_index_within_seed=0 benchmark_method=C0 dft_verified=F pbc="T T T"
Ni       3.55729782       1.80698615       2.78413290
Ni       1.71385863       0.22419359       1.35692537
H        4.52351615       2.71653014       5.59627757
Ni       2.94981651       2.32821325       5.27911197
Ni       1.07468358       1.19813414       3.73201039
H        0.53023377       0.58393079       5.32673530
Mn       1.29855635       3.24983959       7.06523866
H        2.52444611       3.97785249       5.25451211
H        1.05893169       2.48791723       5.31697205
H        3.15293700       3.38297566       7.59680260
Ni       4.69084605       3.90071045       6.83600950
H        2.73072846       1.19727367       4.04106312
H        2.27131643       1.77583037       6.80059830
H        3.47914691       0.48517606       5.97548704
9
Lattice="3.9669525623321533 0.0 1.3482083082199097 1.292491313754908 5.787291345602354 2.6722617149353027 0.0 0.0 6.489254474639893" Properties=species:S:1:pos:R:3 sample_seed=85006 sample_index_within_seed=0 benchmark_method=C0 dft_verified=F pbc="T T T"
O        2.93482998       1.76139931       5.22864711
Gd       4.76702720       5.76253087       6.32502131
Sr       0.64768254       0.45685368       5.45528117
Gd       3.40319625       3.51767509       3.83978005
Eu       2.26130172       3.09399369       7.18199333
O        4.08794879       4.63459034       8.32202892
O        2.77513352       4.98151945       5.67634303
O        3.93506891       1.78744610       2.29410921
O        1.42647919       4.29817943       3.14374347
4
Lattice="5.723969459533691 0.0 0.010058969259262085 0.0014331351864143719 5.720741092461261 0.014034627005457878 0.0 0.0 5.7260637283325195" Properties=species:S:1:pos:R:3 sample_seed=85007 sample_index_within_seed=0 benchmark_method=C0 dft_verified=F pbc="T T T"
Sr       3.91053788       0.75472617       5.32218852
Eu       1.04705061       0.75676559       2.45261536
Eu       3.90870610       3.61601831       2.46645759
Eu       1.04784021       3.61654103       5.32589617
12
Lattice="4.730674743652344 0.0 2.901169538497925 1.7827934708628135 4.70039656856643 2.9020073413848877 0.0 0.0 5.809697151184082" Properties=species:S:1:pos:R:3 sample_seed=85008 sample_index_within_seed=0 benchmark_method=C0 dft_verified=F pbc="T T T"
Ta       3.77357840       3.66814876       6.68199400
Fe       4.16550019       3.43837161       9.58770592
B        3.99927942       0.00174655       6.68184371
Fe       1.73353973       3.50884499       8.20354008
B        4.89204045       2.35082557       5.22969939
Fe       1.73518149       3.51372099       5.17012154
Fe       3.31583966       1.20169595       5.16789625
B        4.89710189       2.34938650       8.13154123
Ta       1.28575757       1.03217924       6.68795483
Fe       3.32199861       1.19681505       8.19692668
Fe       0.88582757       1.26310262       3.77885995
B        3.99749145       0.00280446       3.77500316
8
Lattice="4.764561176300049 0.0 0.007415344472974539 -2.366247137092615 4.135652507251991 0.00714468490332365 0.0 0.0 10.125357627868652" Properties=species:S:1:pos:R:3 sample_seed=85009 sample_index_within_seed=0 benchmark_method=C0 dft_verified=F pbc="T T T"
Cu       1.17839987       3.88802016       5.56836810
Sc      -1.20992577       2.50857238       6.10599005
Eu      -1.21063706       2.51055353       1.03666937
Cu       1.16750425       1.12707849       0.42775975
Eu       1.16470063       1.13143754       3.65252815
Eu       1.17795809       3.88746306       8.56254479
Cu       1.16343409       1.13051821       6.64507944
Cu       1.17745259       3.88793906       1.67806076
3
Lattice="4.0991668701171875 0.0 0.007915126159787178 0.007981957919692403 3.6763757840071922 -2.125175952911377 0.0 0.0 4.2433271408081055" Properties=species:S:1:pos:R:3 sample_seed=85010 sample_index_within_seed=0 benchmark_method=C0 dft_verified=F pbc="T T T"
Eu       3.05608620       1.40097905       0.16215889
Ni       1.00498898       2.62559162       2.28030043
Ga       1.00004861       0.17336308       2.27824862
9
Lattice="4.264269828796387 0.0 -0.0013762644957751036 -0.00768697706804984 6.56841209744673 -3.792083501815796 0.0 0.0 7.582387447357178" Properties=species:S:1:pos:R:3 sample_seed=85011 sample_index_within_seed=0 benchmark_method=C0 dft_verified=F pbc="T T T"
Eu       0.95071873       4.77162901       1.98674065
Mg       3.08058525       6.33969203      -3.35238607
Cu       0.95084378       4.77315041      -2.44953198
Eu       0.95445089       2.04672269      -0.87645856
Mg       3.08328807       4.77120031      -0.63859603
Mg       3.08461888       3.20228440       4.22863673
Cu       3.08832934       0.39292202       5.13622127
Eu       0.95420822       0.92893053       2.91500928
Cu       3.08497872       2.57945117       1.34146586
11
Lattice="3.7305424213409424 0.0 1.0514874458312988 1.3829830004112855 6.701186551657578 2.2522010803222656 0.0 0.0 7.144590377807617" Properties=species:S:1:pos:R:3 sample_seed=85012 sample_index_within_seed=0 benchmark_method=C0 dft_verified=F pbc="T T T"
Mn       2.93155328       1.48419116       4.80826093
Mn       2.13892006       6.64146580       7.63589050
Sb       0.62330335       2.73752548       5.86992260
Mn       2.18888536       1.00760621       7.45263653
Mn       3.71916803       4.47846950       9.16438590
Mn       1.45970115       2.87943906       2.88564396
Mn       1.47452573       0.31909529       2.84129351
Pd       4.37642209       5.52608709       6.83923701
Sb       1.43012760       5.80746460       3.00171769
Pd       2.96242972       4.19139583       4.71818546
Mn       3.63853302       1.78264226       2.30417592
9
Lattice="4.212806701660156 0.0 0.0007024016231298447 -2.1081746259931715 6.0171604885130545 -1.2093775272369385 0.0 0.0 6.363283157348633" Properties=species:S:1:pos:R:3 sample_seed=85013 sample_index_within_seed=0 benchmark_method=C0 dft_verified=F pbc="T T T"
Eu       2.58038430       1.96459464       0.19480612
Al       0.47056670       5.93069949       1.68693858
Al       0.47049604       2.69235414       4.34731757
Ni       0.46833627       3.51414828       2.12071498
Fe       0.47185642       1.10502419       2.46127692
Eu      -1.63717257       5.15324660       4.25562157
Ni       0.46958810       4.27431887      -0.18742972
Ni      -1.63567286       4.68583326       1.25439405
Ni       2.57644641       2.35154057       3.04617913
11
Lattice="3.3152754306793213 0.0 0.2133304327726364 1.35317535983598 2.890051393243049 0.20557093620300293 0.0 0.0 14.460471153259277" Properties=species:S:1:pos:R:3 sample_seed=85014 sample_index_within_seed=0 benchmark_method=C0 dft_verified=F pbc="T T T"
O        3.55040302       0.87999364       2.82691069
Fe       1.42196736       1.64583474       6.77052610
F        2.15109370       2.01927394       0.28383611
Mg       0.51622913       1.02046888       0.77675611
Fe       2.40945020       2.22671398      12.21556798
Mn       3.26733810       2.76483972       3.95158397
Fe       2.86533415       0.44958372       9.77469613
O        2.69792741       0.34238441      12.15931956
O        2.53913025       2.31445951      10.02253966
O        3.10158041       0.63853509       7.41994210
O        1.64229322       1.75341124       4.92721845
8
Lattice="6.085951328277588 0.0 -0.0027346829883754253 0.009932179088032731 6.507130195418821 -3.764108657836914 0.0 0.0 7.514840126037598" Properties=species:S:1:pos:R:3 sample_seed=85015 sample_index_within_seed=0 benchmark_method=C0 dft_verified=F pbc="T T T"
Eu       2.06821540       0.55208553       6.97603077
Eu       2.07899209       3.84668837       5.06748766
Eu       5.11646425       1.65343305       1.36064838
Eu       5.12385918       4.95158966      -0.54342318
Eu       2.07672509       3.85370467       1.36162141
Li       2.07214886       0.58712567       3.21524482
Eu       5.11425700       1.65515571       5.06654765
Li       5.12047857       4.91941979       3.21271882
8
Lattice="2.835542917251587 0.0 -0.00029454202740453184 0.003582108848067621 5.108133490564151 -2.549149990081787 0.0 0.0 6.354551792144775" Properties=species:S:1:pos:R:3 sample_seed=85016 sample_index_within_seed=0 benchmark_method=C0 dft_verified=F pbc="T T T"
Fe       1.81913996       3.04412825      -0.02816395
Co       1.81994483       4.34202776       2.49559380
Fe       1.81807728       1.77720917       3.74840601
Co       1.81723866       0.48251526       1.21851876
Fe       0.40008622       1.12507079       5.68281837
Fe       0.40171534       4.96497241       0.58330586
Co       0.40055106       2.41144275       1.86245995
Fe       0.40199474       3.69570816       4.39061823
20
Lattice="4.920495510101318 0.0 1.5338932275772095 2.1283866169386547 5.057975947276937 2.221356153488159 0.0 0.0 8.92131519317627" Properties=species:S:1:pos:R:3 sample_seed=85017 sample_index_within_seed=0 benchmark_method=C0 dft_verified=F pbc="T T T"
Fe       4.96331173       3.03187159       7.60067880
Fe       3.32141892       4.90973517       4.02381710
Fe       3.04986622       1.47408058       4.66146479
Mg       2.04197329       1.90181351       8.05321039
Fe       5.87412005       2.58535216       4.24924151
Fe       0.18804486       0.41215842       5.09935598
Fe       3.46359501       3.72260066       9.89812597
O        2.45373106       3.19489960       3.90247845
O        3.07684901       3.76518124       8.01751629
Fe       4.09877303       0.98606439      10.16179751
O        5.08639695       2.78638610       9.68823529
O        2.39596425       2.14853507      10.20564847
O        4.58039707       1.30380487       3.25297462
O        5.22852875       4.37565814       3.71639090
O        3.92221023       1.05615182       8.12485537
O        1.56986869       1.67052180       6.05703664
O        4.51655413       2.36424832       5.77008546
O        0.99968040       0.20378226       8.68039112
O        1.55799266       0.63319816       3.56972969
O        5.79217762       4.80374998       7.67127091
6
Lattice="2.7574005126953125 0.0 0.808201014995575 1.3253002385459918 4.559338178907616 0.6240426898002625 0.0 0.0 5.068518161773682" Properties=species:S:1:pos:R:3 sample_seed=85018 sample_index_within_seed=0 benchmark_method=C0 dft_verified=F pbc="T T T"
Fe       2.68568385       0.87287096       1.66271363
Fe       1.06840647       2.65192555       2.06552402
W        1.88998362       1.74422442       4.34697239
Fe       2.16236234       4.36292365       3.45690284
H        0.37915657       0.28226328       4.38610658
Fe       2.96390604       3.58941228       5.80615816
16
Lattice="3.180582046508789 0.0 0.0035377570893615484 0.0024347182605262765 7.505171857737167 -3.214778423309326 0.0 0.0 8.131893157958984" Properties=species:S:1:pos:R:3 sample_seed=85019 sample_index_within_seed=0 benchmark_method=C0 dft_verified=F pbc="T T T"
Mg       0.99561595       5.08485287       2.25000044
Mn       0.99786253       1.95604663       2.64600007
Mn       2.58622623       3.74431769      -0.07218041
Mn       2.58803953       7.27747914       0.91332766
Mn       2.58855634       3.39197013       5.03767210
O        0.99746770       3.14193710       0.97637287
Mn       0.99491290       0.86763285       7.16507408
Mn       0.99859576       6.25108663      -2.19762935
O        2.59121992       4.85766878      -1.79640718
O        2.58849093       7.31551672       4.94903468
O        0.99705304       7.19010408       2.19585049
O        2.58452903       1.75359145       3.94617358
O        0.99466157       3.99514117       3.95529053
O        2.58937622       5.31854893       1.10002730
O        0.99538113       7.33963478      -0.40359922
O        2.58444256       2.27827481       6.74831703
4
Lattice="2.5983426570892334 0.0 0.42428719997406006 1.266600386704056 2.2711889982229576 0.42099693417549133 0.0 0.0 8.295419692993164" Properties=species:S:1:pos:R:3 sample_seed=85020 sample_index_within_seed=0 benchmark_method=C0 dft_verified=F pbc="T T T"
Mn       1.93907934       1.98418450       1.20447841
Ge       1.31972951       1.61996951       5.00296593
Fe       0.95245623       1.40313826       7.33115961
Mn       2.95450215       1.05225693       3.15834197
12
Lattice="4.494975566864014 0.0 1.351271629333496 2.05117267827471 3.9998820476473154 1.3508245944976807 0.0 0.0 8.156967163085938" Properties=species:S:1:pos:R:3 sample_seed=85021 sample_index_within_seed=0 benchmark_method=C0 dft_verified=F pbc="T T T"
Fe       2.31830542       2.35966209       3.49038086
Mn       4.47759681       0.93394178       4.46576134
Mn       4.65405525       3.78634350       3.88239220
Fe       1.74754049       2.01065214       1.25930871
Fe       0.73619936       0.04480267       0.59286604
Fe       4.02913668       2.00938570       1.94347700
Mo       3.53904566       0.36006334       7.57222426
Fe       5.10427076       2.71196164       6.39383982
Fe       1.85004119       0.67838451       5.04304155
Fe       2.89254898       2.71199764       5.73160256
Fe       1.23120508       1.69745804       7.09285932
Fe       3.40470686       3.02284720       8.04430716
12
Lattice="5.8447113037109375 0.0 0.000681856763549149 -2.9202008869415867 5.061016556531538 0.0012061659945175052 0.0 0.0 9.501291275024414" Properties=species:S:1:pos:R:3 sample_seed=85022 sample_index_within_seed=0 benchmark_method=C0 dft_verified=F pbc="T T T"
Al       4.53899297       0.38037113       0.44547270
Al       1.56412657       0.37921936       0.44646535
Eu       3.05667007       4.60947574       3.47188999
Eu       0.13003707       2.92585646       8.22492294
Al       1.56952860       2.09439029       5.18358036
Eu       3.05469468       4.61247243       6.90184438
Eu       0.13050973       2.92485344       2.17121894
Al       3.05205518       1.23819545       2.81950486
Al       4.53818953       2.09588486       5.18476190
Al       3.05309494       2.95139259       0.44846438
Al       3.05241251       1.23747109       7.56302316
Al       0.13106471       4.58593539       5.18556267
10
Lattice="3.8710105419158936 0.0 -1.2653083801269531 -0.002639364812445927 5.09537962265929 -0.00045517782564274967 0.0 0.0 6.345397472381592" Properties=species:S:1:pos:R:3 sample_seed=85023 sample_index_within_seed=0 benchmark_method=C0 dft_verified=F pbc="T T T"
Eu       2.82921263       3.82721406      -0.80784424
O        0.73671299       2.46317721       5.89978042
O        1.94996213       2.63963841       3.33992147
B        1.34225905       3.82711505       2.99270093
Eu       3.73241641       1.28023478       2.44197394
B        1.34921527       1.28003053      -0.09922582
O        0.73805214       0.09550598       5.89867180
O        1.94930927       5.01447690       3.34306563
O        0.05835885       3.82457909       2.52081015
O        2.63394849       1.28144657       0.37848168
4
Lattice="3.6026597023010254 0.0 2.0846269130706787 1.1992735852027179 3.3971447274673876 2.0848240852355957 0.0 0.0 4.163505554199219" Properties=species:S:1:pos:R:3 sample_seed=85024 sample_index_within_seed=0 benchmark_method=C0 dft_verified=F pbc="T T T"
As       3.28398099       1.47257069       5.06144345
Ni       2.08284164       3.17095272       2.97876417
Mn       0.88250974       2.32261457       5.06090147
Mn       2.08374265       0.62292980       2.97784783
10
Lattice="4.605262279510498 0.0 -0.03347106650471687 -1.816386623501217 4.234595131636263 -0.02634243853390217 0.0 0.0 5.050317287445068" Properties=species:S:1:pos:R:3 sample_seed=85025 sample_index_within_seed=0 benchmark_method=C0 dft_verified=F pbc="T T T"
Ga       1.35056546       2.03246503       0.32118807
Co       0.49261775       4.10118174       4.18982026
Ga       2.84730546       4.07294103       3.00931636
Fe       3.71648031       2.00114074       1.66938215
Co       1.32723401       2.03740806       2.88231034
Co      -1.73088893       4.06562543       0.48417633
Co       3.70365129       2.00521702       4.19219426
H        2.72055298       1.12022820       2.99013170
H        3.29700977       0.74632201       0.36140100
Fe       0.48692260       4.10057875       1.66049899
11
Lattice="5.1078338623046875 0.0 -2.189263105392456 -0.932370809543422 5.017937402650461 -2.1837873458862305 0.0 0.0 7.068899631500244" Properties=species:S:1:pos:R:3 sample_seed=85026 sample_index_within_seed=0 benchmark_method=C0 dft_verified=F pbc="T T T"
Eu       4.87883431       0.53738428      -1.57353707
F        3.99639050       2.45867318      -0.20639832
Gd       3.36976473       1.79183730       1.95682293
Gd       0.35180225       4.30397519       1.95761666
F        0.20582719       1.05832275       5.25064319
F        1.37188602       2.45928228       0.91862599
F        2.34830971       3.63322823       3.00096810
F        4.44587332       0.01769744       0.85525629
F        1.82377045       0.01796349       1.97795190
F        2.83225633       1.05949257       4.12186221
F       -0.27269276       3.63694745       4.12493645
16
Lattice="2.4701790809631348 0.0 0.26438769698143005 1.1778224125795018 6.332525064366245 0.8611185550689697 0.0 0.0 11.917484283447266" Properties=species:S:1:pos:R:3 sample_seed=85027 sample_index_within_seed=0 benchmark_method=C0 dft_verified=F pbc="T T T"
Fe       2.32990804       0.20002201       8.14962945
Fe       2.45338098       5.04965587       7.08515797
Fe       0.98840947       4.17052761       9.13655693
Fe       2.38014053       2.59787675       7.73769662
Ni       3.08151427       4.67567030       1.10687694
Fe       1.68691709       6.13682361       2.56158859
Fe       2.82482158       3.86682095       3.51846611
Ni       1.57164053       1.47702028       3.50748852
Fe       0.55498604       2.26970127       1.32890098
Ni       1.36567431       3.23113488       5.52009342
Ni       1.95398025       0.76957646      11.75376208
Fe       2.00803607       3.19915032      11.30905520
Fe       2.58129364       1.04521742       5.83045074
Ni       0.93100577       1.69586741       9.62002124
Ni       1.44503378       5.57918245       4.84061897
Ni       2.05960376       5.61228538      10.89352247
12
Lattice="5.851933479309082 0.0 -2.021482467651367 -1.0193533245204025 5.774687032018561 -2.0450243949890137 0.0 0.0 8.964678764343262" Properties=species:S:1:pos:R:3 sample_seed=85028 sample_index_within_seed=0 benchmark_method=C0 dft_verified=F pbc="T T T"
Ge       0.50389087       5.22554914      -1.24528329
Eu       2.19473144       2.35097108       0.26389774
Eu      -0.08032012       2.70652951       3.45856518
Eu       2.93651163       0.17239326       3.47329241
Eu       4.10648697       4.65222548      -1.35593958
Ge       2.16131440       2.32667550       5.56833098
Ge       3.09843052       3.44402864       3.08558917
Ge       0.29858038       0.09547790       5.43161434
Eu       5.22886765       2.49602651       4.98700837
Ni       4.67891774       5.32918756       3.84804338
Ge       5.29748644       1.19896398      -1.24412373
Eu       1.79045903       5.38901987       4.97186117
8
Lattice="4.232943058013916 0.0 0.005644847638905048 0.019423339328071023 4.594291160212394 0.027472656220197678 0.0 0.0 5.117826461791992" Properties=species:S:1:pos:R:3 sample_seed=85029 sample_index_within_seed=0 benchmark_method=C0 dft_verified=F pbc="T T T"
Zn       1.57518052       4.05168435       0.49488086
Fe       3.67450434       0.33874862       4.27077646
Zn       3.68441009       2.61311028       3.04882440
Fe       1.56539627       1.73462422       1.72119060
Fe       3.68445592       2.56898873       0.48910881
Fe       1.56583103       1.73302403       4.36137930
Fe       1.57527815       4.09999183       3.05470114
Fe       3.67515878       0.33689037       1.80100016
4
Lattice="2.3402249813079834 0.0 -0.8139919638633728 0.0029223850188594093 4.013117203007041 0.0010513500310480595 0.0 0.0 4.911623001098633" Properties=species:S:1:pos:R:3 sample_seed=85030 sample_index_within_seed=0 benchmark_method=C0 dft_verified=F pbc="T T T"
Fe       2.21167751       2.43082696      -0.12117486
Co       1.09550962       0.42417340       3.99740612
Co       2.18636311       2.43188351       2.34785498
Fe       1.07045827       0.42501649       1.55329922
10
Lattice="4.910707950592041 0.0 2.6462275981903076 1.5823247892499799 4.646612031214003 2.64986515045166 0.0 0.0 5.581044673919678" Properties=species:S:1:pos:R:3 sample_seed=85031 sample_index_within_seed=0 benchmark_method=C0 dft_verified=F pbc="T T T"
Mo       5.10317791       4.38393435       5.19990195
O        0.43707458       0.47311959       5.44714385
O        2.88266548       1.23017809       3.66685998
Eu       5.14527612       0.90089168       5.27328134
O        5.73216886       2.88852307       9.65976698
Cu       1.85786162       2.06113462       5.34471961
Eu       3.48352120       3.22426797       8.06962759
O        3.11196765       0.81783951       6.53179290
O        3.27081903       3.65030172       5.22745004
O        5.50951631       3.29593406       6.79175015
