17
Lattice="5.370122909545898 0.0 -3.0533275604248047 -2.558556598605321 5.631446657899279 -1.3017874956130981 0.0 0.0 6.145985126495361" Properties=species:S:1:pos:R:3 sample_seed=85000 sample_index_within_seed=0 benchmark_method=FT0 dft_verified=F pbc="T T T"
Mn       1.50893331       0.61016981       4.48481922
Mn      -0.31467069       4.57122308       0.93509962
Mn       3.78104631       1.09535564       3.02696410
C       -0.40401408       1.46984538       4.40770767
Mn      -0.94889798       3.40666316       4.67009329
Mn       2.71124288       2.99669126      -1.44258680
Mn       2.47612563       5.54494731      -1.38251723
As       2.00262109       2.66412014       2.35838484
Mn       0.68475387       2.36051029      -0.00462522
Mn       2.19872986       4.46478349       0.73674014
Mn       2.98809701       1.26818491       0.64345387
C        3.48103260       1.02004529      -1.20559387
Mn      -0.41244524       2.36600069       2.37292921
C       -1.29671097       4.21010890       2.71399872
Mn       0.79163777       4.58568937       3.23530789
C        0.95783915       4.14040969      -0.86867626
As       0.70116265       0.00269200       0.74874771
7
Lattice="4.607089519500732 0.0 -1.265939712524414 -0.3150984230143088 4.60562344541559 -1.238017201423645 0.0 0.0 8.760893821716309" Properties=species:S:1:pos:R:3 sample_seed=85001 sample_index_within_seed=0 benchmark_method=FT0 dft_verified=F pbc="T T T"
Eu       2.86890247       3.80188264       6.66947439
Eu       1.38404559       2.20707764       1.45975727
As       4.00819045       0.07931902       2.01083703
Eu      -0.17866753       3.00530671       4.69873255
As       0.56076476       1.32523098       7.35722130
Eu       2.28313044       0.70171756       4.68098371
O        2.12588656       3.00257500       4.06423916
19
Lattice="6.7776031494140625 0.0 -3.213864326477051 -4.057577385681157 4.467014813148344 -0.5699982643127441 0.0 0.0 5.970738410949707" Properties=species:S:1:pos:R:3 sample_seed=85002 sample_index_within_seed=0 benchmark_method=FT0 dft_verified=F pbc="T T T"
Fe       0.85504784       3.58895138       1.25674720
Mn      -0.95549191       4.18775476      -0.93016912
Mn      -1.50071123       3.20841012       2.66417914
C        3.70883565       1.72209564      -0.40116297
Mn       2.89214113       3.51600820       0.03737230
Mn       1.00705907       3.08709750       3.48953491
Mn       5.45689499       0.74220664      -0.81786335
Mn       1.49894611       0.87924567       2.45786269
Mn       3.95150768       1.43035463       1.45200394
C        1.59746668       0.12113636       4.36661223
Mn      -3.57732051       4.27167270      -0.33672976
Mn      -0.77022509       2.16346401       0.34334589
Mn       3.60533771       2.10696035      -2.25760529
C       -0.02393675       2.08835233       2.18200739
C        2.44561512       2.55461739       2.08693016
C       -2.02793303       3.73240575       0.77530394
Mn       1.68490716       1.68127705      -0.56997631
C        5.01662091       0.55902392       3.09105321
C        0.91563611       3.48278706      -0.60187976
11
Lattice="5.089111804962158 0.0 0.8791784644126892 -1.8965157021546022 5.205925424728706 -2.7167322635650635 0.0 0.0 5.174733638763428" Properties=species:S:1:pos:R:3 sample_seed=85003 sample_index_within_seed=0 benchmark_method=FT0 dft_verified=F pbc="T T T"
Mn       1.42350243       2.65980732      -0.70666029
Mn      -0.93625222       3.94913402      -0.79322497
Mn       2.83079868       1.02245998       0.58886813
Mn       1.72061460       5.00298011       0.09376170
C        0.96099647       4.29288048      -1.60797751
As       3.74619621       2.14294459       3.68222724
As       0.18407832       1.10168400       0.74063762
Mn       0.48996579       3.46332196       1.84467136
Mn       2.79662307       4.17931259       2.66340424
As       1.41553851       0.38318199       3.60714980
C        2.35674797       3.24711702       0.95311985
8
Lattice="3.139694929122925 0.0 -0.7465230822563171 -2.160522655987478 4.8947700384481445 -2.061073064804077 0.0 0.0 6.8688483238220215" Properties=species:S:1:pos:R:3 sample_seed=85004 sample_index_within_seed=0 benchmark_method=FT0 dft_verified=F pbc="T T T"
Mn      -0.66016795       2.25256696       1.66171285
Mn      -1.34847158       4.80904979      -1.15903277
As       0.49201970       2.97099001      -0.43278648
As       1.31412202       1.26026656       2.96619699
As       1.16825449       4.13959788       2.37415553
C        2.29360563       0.62048012       0.16731123
Mn      -0.05909630       2.93729743       4.15747614
Mn       1.88888785       1.11903427       5.35382551
14
Lattice="4.227294921875 0.0 -1.6942722797393799 -0.28711355662574123 5.0111756244172785 -0.6490897536277771 0.0 0.0 6.244060516357422" Properties=species:S:1:pos:R:3 sample_seed=85005 sample_index_within_seed=0 benchmark_method=FT0 dft_verified=F pbc="T T T"
Mn       1.39901492       4.09404462       0.00071027
Mn       2.26118043       4.37281109       2.34007638
Mn       3.20445497       4.66353229      -1.59773746
Mn       0.85045785       0.21458567       4.75238142
Mn       2.61121034       2.15980412      -0.96416908
C        1.66547111       3.51857629       4.11643431
Mn       3.44789522       1.03150632       1.17546626
Mn      -0.06266036       2.71408193       4.73442870
Mn       0.80390968       1.58589062       0.63060987
Mn      -0.15148372       3.53717717       2.24743045
C        2.34475556       2.73545465       1.17234196
C        3.37218941       1.01647015       3.81886904
C        0.92866335       0.22336396       2.11897178
Mn       1.75145583       1.87248737       2.95122569
9
Lattice="2.9275925159454346 0.0 -0.0136243412271142 -0.0624204843996112 5.282902558903586 -3.042896270751953 0.0 0.0 6.110879421234131" Properties=species:S:1:pos:R:3 sample_seed=85006 sample_index_within_seed=0 benchmark_method=FT0 dft_verified=F pbc="T T T"
Mn       2.77667722       1.86130963      -0.57538124
P        2.74564330       4.89369113       1.74763719
Mn       1.30001913       3.13445118       1.15682928
Mn       2.76531109       3.13274576       3.33560545
Mn       1.27505483       5.25671195      -2.52338055
C        1.29998486       3.12350576      -1.30035159
Mn       1.32560060       1.01234753       3.58168592
P        2.78497004       1.36782291       1.73874363
Mn       2.75017230       4.39970816      -0.57107675
4
Lattice="3.7792558670043945 0.0 1.2362998723983765 1.0902551936064446 5.648755428839516 3.132042646408081 0.0 0.0 6.534178256988525" Properties=species:S:1:pos:R:3 sample_seed=85007 sample_index_within_seed=0 benchmark_method=FT0 dft_verified=F pbc="T T T"
Eu       2.45029731       2.88745462       3.44376609
Eu       3.48843393       4.68093578       6.71135458
Eu       1.40481382       1.11146325       6.71065093
Pt       4.67488441       4.67106061       9.54902872
12
Lattice="3.500917434692383 0.0 0.02222527004778385 0.02631629333872491 5.83787517930596 0.051691047847270966 0.0 0.0 6.893433094024658" Properties=species:S:1:pos:R:3 sample_seed=85008 sample_index_within_seed=0 benchmark_method=FT0 dft_verified=F pbc="T T T"
Mn       1.25757157       5.69062670       5.68994252
Mn       3.00024342       3.80016876       4.90942468
Mn       1.24059161       2.76706014       3.04005244
P        1.25646107       5.01340780       3.54708007
Mn       2.99139082       1.56194294       6.48178827
Mn       1.24793331       3.45149409       0.36688649
Mn       2.98573950       0.88209943       3.81462917
Mn       1.23403464       0.53263805       1.41613448
Mn       3.00563512       4.48310716       2.24445496
P        1.24128424       2.09562632       5.17668889
P        3.00773935       5.15422415       0.10798692
P        2.98973478       2.23620449       1.73381285
8
Lattice="3.717534065246582 0.0 -1.6127228736877441 -0.6605303790013222 3.6411303881157857 -1.6250897645950317 0.0 0.0 4.961639404296875" Properties=species:S:1:pos:R:3 sample_seed=85009 sample_index_within_seed=0 benchmark_method=FT0 dft_verified=F pbc="T T T"
Mn       1.66766773       0.73501273       1.80703345
Mn       2.10325633       3.46509376      -2.29489754
C        0.24149984       3.46878215      -1.49340952
C        2.43403787       1.64042412      -1.47779142
Mn       0.57199562       1.64839666      -0.67687630
C        1.33874361       2.55622683       0.99738318
Mn       3.19460622       2.55517533       0.19061220
C        3.52496031       0.73498733       1.00019468
3
Lattice="3.7746176719665527 0.0 0.04458218440413475 0.03257244735990719 3.667838904088258 -0.9836307764053345 0.0 0.0 7.523362159729004" Properties=species:S:1:pos:R:3 sample_seed=85010 sample_index_within_seed=0 benchmark_method=FT0 dft_verified=F pbc="T T T"
Eu       1.27256387       1.48983306       5.81962419
Au       3.16550810       2.86092277       3.59859034
Eu       1.26019087       0.56104801       2.29001340
9
Lattice="4.2095818519592285 0.0 -1.7106428146362305 -1.0350794613538314 4.962020090462111 -2.3500049114227295 0.0 0.0 6.6613569259643555" Properties=species:S:1:pos:R:3 sample_seed=85011 sample_index_within_seed=0 benchmark_method=FT0 dft_verified=F pbc="T T T"
As       2.76564052       2.75623491      -1.87173486
Mn      -0.46617197       2.95774854       1.98673790
Mn       0.91662972       2.03313767      -0.53407453
Mn       3.23255809       4.05681548       2.84027986
As       0.82569448       4.79880761       3.15668780
As       0.70524459       0.90590534       1.61069942
Mn       1.85156604       4.95923078      -1.28697914
As       3.82947999       1.80303756       2.36105980
As       1.61759221       3.86128566       0.92361590
11
Lattice="3.382153272628784 0.0 -0.69373619556427 -0.3463392130941887 5.801284454069493 -1.641683578491211 0.0 0.0 8.73996639251709" Properties=species:S:1:pos:R:3 sample_seed=85012 sample_index_within_seed=0 benchmark_method=FT0 dft_verified=F pbc="T T T"
As       1.09392130       0.17325616       5.81750553
Mn       1.40022081       5.54776637      -1.24085419
Mn       2.73602222       1.90835233       5.31148709
As       0.04340140       1.70504478       0.70044515
Mn       2.77168133       5.69266832       5.49194304
Mn       3.08016831       3.74873158      -1.70120728
Mn       1.04666723       3.82069639       5.71013259
Mn       1.39872328       1.92915830       7.42449787
Sb       2.25491064       0.39037647       2.88257776
Sb       2.32638291       3.42427359       3.29648260
Mn       1.77763950       3.63530526       0.58864262
9
Lattice="3.1645123958587646 0.0 0.7813979387283325 1.8811617804753098 6.564701978043114 -1.0293036699295044 0.0 0.0 6.880545616149902" Properties=species:S:1:pos:R:3 sample_seed=85013 sample_index_within_seed=0 benchmark_method=FT0 dft_verified=F pbc="T T T"
Mn       3.44583994       4.89574669       0.78122439
As       2.15543140       6.06727207      -0.84210389
Mn       2.22139798       3.40067610       5.83059000
Mn       2.89663047       3.47168016       3.04689802
As       1.00196069       2.35633182       3.97750292
Mn       1.51010992       1.09280045       1.93776526
Mn       4.11754561       5.02291097       4.87750117
As       3.41200874       2.53739721       0.98460114
As       2.92838336       5.92276558       2.82320192
11
Lattice="3.5981061458587646 0.0 0.005185582209378481 -0.3344194500395365 5.845839570776307 -3.551621675491333 0.0 0.0 6.974876880645752" Properties=species:S:1:pos:R:3 sample_seed=85014 sample_index_within_seed=0 benchmark_method=FT0 dft_verified=F pbc="T T T"
As       0.80109560       5.58967370      -0.92618544
Mn       2.64415852       4.82113671      -2.30816855
As       2.77353679       2.60436936       4.45792747
Mn       1.06892588       0.91843536       0.48518803
Mn       0.91289324       3.62914818       2.56980052
Mn       1.06513782       0.92273135       4.73444086
Mn       0.93835211       3.20953820      -0.89397795
Mn       2.64178419       4.81129190       0.47423336
As       2.59135182       5.69096985       2.57328586
Mn       2.84939023       1.29927530       2.59509245
As       2.76603737       2.60604971       0.72779026
8
Lattice="3.051586151123047 0.0 0.006969126407057047 0.021823283379706748 5.162151937347613 -0.008439580909907818 0.0 0.0 5.798110485076904" Properties=species:S:1:pos:R:3 sample_seed=85015 sample_index_within_seed=0 benchmark_method=FT0 dft_verified=F pbc="T T T"
Mn       0.11440890       3.64610340       4.10795924
P        1.63576244       2.63275713       2.72438055
Mn       1.62861987       1.01387603       1.22441169
P        0.10715163       2.01236873       5.65642131
P        0.11710237       4.60816666       1.99199452
Mn       0.10172512       1.09312191       3.50845396
P        1.62413776       0.08136183       4.88101187
Mn       1.63935168       3.60731407       0.60415944
8
Lattice="3.170881509780884 0.0 -0.046908266842365265 -0.008384275326804549 5.331908309719319 -0.04892289638519287 0.0 0.0 5.9276227951049805" Properties=species:S:1:pos:R:3 sample_seed=85016 sample_index_within_seed=0 benchmark_method=FT0 dft_verified=F pbc="T T T"
Mn       2.80434600       3.41669510      -0.04694152
As       2.79911906       4.43555192       2.16863966
Mn       1.21574166       3.34621293       3.65137089
P        1.21475049       5.05719160       5.15047098
P        1.22115919       2.34347177       1.38179619
P        2.80611916       1.75072482       4.35652477
Mn       2.80755943       0.79934008       0.58876974
Mn       1.22220694       0.76388114       3.02130983
20
Lattice="5.308921813964844 0.0 -0.8966262340545654 -1.063763802850588 6.308612965148897 -0.11389295756816864 0.0 0.0 6.256109714508057" Properties=species:S:1:pos:R:3 sample_seed=85017 sample_index_within_seed=0 benchmark_method=FT0 dft_verified=F pbc="T T T"
C        2.81592415       2.38828690       1.77051079
Mn       3.64318192       0.89838059       2.76115239
Mn       1.48150609       6.28554962       0.06662589
C       -0.33208858       6.04418445       5.75122608
Mn      -0.46342724       5.09089299       1.20203150
Mn       1.15894330       1.34300272       1.72701769
Mn       1.61574742       0.13053880       4.04034016
Mn       1.60846071       3.85095911       1.20643585
Mn       2.07161481       2.76892051       3.79494386
C        2.14934224       4.01719646       5.46482255
Mn       0.21680170       4.12462612       5.24879053
C        3.25417302       1.02978320       4.70290209
Mn       4.78052840       2.85499341       1.72554809
C        0.38711323       1.60201454       3.63603134
Mn      -0.05105350       1.56709097       5.59088293
C       -0.12357323       3.05775966       0.74405894
Sn       3.62167794       4.83415903       2.51752251
Mn       3.26374588       2.52084164      -0.21342880
C        1.09550636       5.91951414       2.01279116
Mn       3.09927129       5.54765295       4.78641077
6
Lattice="4.0191330909729 0.0 1.5784587860107422 1.1935942147796652 3.858151090645307 1.4044888019561768 0.0 0.0 4.2696332931518555" Properties=species:S:1:pos:R:3 sample_seed=85018 sample_index_within_seed=0 benchmark_method=FT0 dft_verified=F pbc="T T T"
Mn       3.56673602       1.01751854       2.32262333
V        2.14141023       2.93638013       2.22445947
C        4.15914530       2.94565848       3.02969469
Mn       4.16034835       2.94729306       5.17028460
Mn       0.89154461       0.57480600       2.80435244
Mn       2.22777747       1.46037222       4.53018795
16
Lattice="4.390744209289551 0.0 -2.0657787322998047 -0.9841993446514511 5.414188268214285 -2.6536848545074463 0.0 0.0 7.5428876876831055" Properties=species:S:1:pos:R:3 sample_seed=85019 sample_index_within_seed=0 benchmark_method=FT0 dft_verified=F pbc="T T T"
Mn       2.04772953       0.66268342      -0.27356048
Mn       3.40906470       1.48915497      -2.36863773
Mn       1.28703194       4.51489469       2.74732834
Mn      -0.89204416       5.37805886      -1.40759319
Mn       0.85660439       3.58253810      -0.02295429
Mn       1.91626533       0.55705518       3.25938464
Mn       2.27094721       2.52815827       1.82467635
Mn      -0.41581790       2.56780926       2.00884414
Mn       3.91329402       0.66123162       1.61944853
C       -0.29474067       4.53077690       1.46281057
C        0.70945258       1.78131891       0.60081857
C        0.95343859       2.35606679       3.39900939
Mn       3.24977371       4.88906492       1.24356248
Mn       0.27077729       3.35154141       4.94319998
C        1.07254233       4.95258763      -1.33512025
C        3.59546595       1.64894037       3.27451615
4
Lattice="3.7402994632720947 0.0 1.5607688426971436 1.558197424709697 3.3850665881784567 1.547808289527893 0.0 0.0 5.184689521789551" Properties=species:S:1:pos:R:3 sample_seed=85020 sample_index_within_seed=0 benchmark_method=FT0 dft_verified=F pbc="T T T"
Pt       1.51294281       0.72082796       1.39510727
Si       3.56800547       2.03326450       6.92749800
Pt       4.49600475       2.62578153       4.75714061
Pt       0.39076352       0.00339876       4.04799201
12
Lattice="4.33286714553833 0.0 -1.0032249689102173 -0.4687965159793462 5.177382361766231 -1.324951410293579 0.0 0.0 5.233989238739014" Properties=species:S:1:pos:R:3 sample_seed=85021 sample_index_within_seed=0 benchmark_method=FT0 dft_verified=F pbc="T T T"
Mn       1.88595605       4.80129143      -1.08350255
Mn       1.83906118       0.45250208       2.92981636
Mn      -0.25319995       3.41494658      -0.86273993
C        2.73141417       4.52077949       2.48199344
Mn       3.56381572       4.23592683       0.79858257
Mn       2.19741174       2.34599043      -0.38879978
C        0.79430362       1.94043305       3.63949928
Mn       3.72826270       1.52955656       1.42978012
Mn       1.53614035       2.99350715       2.19728811
C       -0.14520862       2.65987750       0.91071621
Mn       0.04676303       0.87293301      -0.17455673
C        1.74663502       1.21114872       1.14674956
12
Lattice="5.216352462768555 0.0 -1.6484936475753784 -2.8850779618316555 4.3744521644856595 -1.5391377210617065 0.0 0.0 5.475451469421387" Properties=species:S:1:pos:R:3 sample_seed=85022 sample_index_within_seed=0 benchmark_method=FT0 dft_verified=F pbc="T T T"
Al      -0.26677324       0.94438864       2.69035358
C        3.71180561       0.76276901       2.71513030
Mn      -1.82370111       2.94257450       1.56410718
Mn       2.21866442       0.75539705       1.51503749
Mn       0.88551748       3.17054292       1.10772945
C       -2.26326886       3.97551858      -0.07431919
Mn      -1.42395405       2.71109395       4.28370590
Mn       1.27938413       2.94188224      -1.63512406
Mn       0.10150025       0.75471091      -0.04219063
Mn       2.59071436       0.55909385       4.27969199
C       -0.27484031       3.00066894       2.70138875
C        1.73219091       1.86998943      -0.03868827
10
Lattice="2.815516233444214 0.0 -0.013753239996731281 0.033514462144569886 5.754491486639904 -3.0251944065093994 0.0 0.0 6.53571891784668" Properties=species:S:1:pos:R:3 sample_seed=85023 sample_index_within_seed=0 benchmark_method=FT0 dft_verified=F pbc="T T T"
Mn       0.24646732       3.77859118       4.21417508
Mn       0.23925049       1.14255643       4.30033688
Mn       1.65631714       5.00694063       2.22228004
Mn       1.65329363       2.47279324      -0.75076960
Mn       0.23989523       3.66578752       0.74036743
C        1.66403516       5.11183930      -2.43371241
Mn       1.66903782       5.39292769      -0.43632492
C        0.23091855       1.07478562       2.40922824
Mn       1.64847641       2.38240015       2.32305194
Mn       0.22435282       0.77170855       0.43038637
4
Lattice="3.6824285984039307 0.0 2.085972547531128 1.2305830190548404 3.45399464232714 2.0722451210021973 0.0 0.0 4.220816135406494" Properties=species:S:1:pos:R:3 sample_seed=85024 sample_index_within_seed=0 benchmark_method=FT0 dft_verified=F pbc="T T T"
Mn       1.39553647       1.71528422       1.47959747
Mn       3.84995771       0.84860403       5.68843237
Mn       3.85400779       3.44058791       5.67076533
Rh       2.62428233       2.58212864       3.57495399
10
Lattice="2.839578866958618 0.0 -0.01867668516933918 -1.4273611898889982 2.4471873548696896 -0.03198361396789551 0.0 0.0 14.293952941894531" Properties=species:S:1:pos:R:3 sample_seed=85025 sample_index_within_seed=0 benchmark_method=FT0 dft_verified=F pbc="T T T"
Mn       0.25093039       2.41323101       6.52689845
C        0.25586736       0.78262267       9.72656362
Mn       0.25008224       2.41334799      10.76147305
C        1.67255060       1.59729904       5.47540172
Mn       1.67161708       1.59888969       8.67345308
Si       1.67210923       1.59868343      12.60991912
Mn       1.67575460       1.59933340       2.24910770
C        0.25252570       2.41168908       1.19246969
Mn       0.25605005       0.78234035       4.38870501
Mn       0.26025658       0.77926875       0.16446806
11
Lattice="4.463056564331055 0.0 -1.54267418384552 -1.621201802855055 4.149051618024886 -1.4318476915359497 0.0 0.0 5.899174213409424" Properties=species:S:1:pos:R:3 sample_seed=85026 sample_index_within_seed=0 benchmark_method=FT0 dft_verified=F pbc="T T T"
Mn       2.48892265       2.35111093       2.88140229
Mn       1.06679908       0.27517185       4.37197928
Mn       3.78442415       0.73707706      -1.15731063
Mn       0.00270774       1.74176636       2.50382299
Mn       1.92394651       1.55210419       0.51375556
Mn       0.50379397       2.97620004      -1.09847760
Mn       1.19561679       3.96425316       1.02423785
C        0.95703901       3.39322270       2.91386210
C       -0.44486277       1.30679013       4.38684549
C        1.08279165       0.29838387       1.41584391
Mn       3.05352720       3.17674327      -0.66206672
16
Lattice="5.133536338806152 0.0 0.2586100995540619 -2.4409449478889096 4.580498561912218 -1.9521982669830322 0.0 0.0 6.8584465980529785" Properties=species:S:1:pos:R:3 sample_seed=85027 sample_index_within_seed=0 benchmark_method=FT0 dft_verified=F pbc="T T T"
Mn       0.54131827       2.91510402      -0.48683312
Mn       3.92780582       1.61664577       0.80573794
Mn       1.85810284       0.53037679       6.25723113
Mn       1.52721897       2.05927658       1.56184637
C       -0.11846016       1.24780681       2.54141662
C        2.57524185       0.17472761       1.15716111
Mn       2.11075675       3.93758553       4.89062024
Mn       1.06383115       1.72587507       4.07497287
Mn       2.25853097       4.32110076       2.46188105
Mn      -0.56018807       3.25653311       2.49406803
C       -0.01978047       1.04962574       5.74692081
C        2.43334505       2.53261616      -0.33972247
Mn       3.67825443       2.09148422       5.07196675
Mn       3.03875328       0.60849687       2.97862752
C        2.67732300       2.60389896       3.32894522
Mn      -1.65458664       4.17267317      -0.06998882
12
Lattice="4.679178237915039 0.0 -1.4075593948364258 -2.132145028274579 4.161138965440243 -1.4232314825057983 0.0 0.0 5.619356632232666" Properties=species:S:1:pos:R:3 sample_seed=85028 sample_index_within_seed=0 benchmark_method=FT0 dft_verified=F pbc="T T T"
C        1.89002464       2.27313197       0.20790718
Mn      -1.02087467       3.03131313       4.32493402
Fe      -1.85623436       3.92868095       2.06015840
C        0.61905038       0.17891743       1.60671435
Mn       0.31272935       3.62596564       0.77083412
Mn       1.47309757       3.29033419      -1.46993965
Mn       0.21164730       1.22535048      -0.05547684
Mn       2.38864418       0.94960119       4.33118016
C        0.06298931       3.13286351       2.65042944
C        3.48695937       1.06868700       2.66397091
Fe       1.55160980       1.82879331       2.07030482
Fe       3.69212306       1.54885348       0.77586204
8
Lattice="4.163242340087891 0.0 2.1725587844848633 1.5869155871251188 3.8372744582975993 2.162101984024048 0.0 0.0 5.162452697753906" Properties=species:S:1:pos:R:3 sample_seed=85029 sample_index_within_seed=0 benchmark_method=FT0 dft_verified=F pbc="T T T"
Mn       1.41195318       2.56030922       3.84467444
Mn       3.41758698       3.79041375       5.32309263
Mn       1.87631687       1.86944609       6.42276388
Mn       3.73959694       1.33063698       4.63371881
C        1.51887076       3.52187889       5.52319326
Mn       4.20096858       0.64329893       7.21039120
Mn       3.78081972       3.25570031       7.89767903
C        2.80707854       1.60106734       2.94514908
4
Lattice="4.618134021759033 0.0 2.686598539352417 1.500150334280135 4.38555015415053 2.7096469402313232 0.0 0.0 5.363534450531006" Properties=species:S:1:pos:R:3 sample_seed=85030 sample_index_within_seed=0 benchmark_method=FT0 dft_verified=F pbc="T T T"
Eu       3.67677866       3.90323786       4.02486192
Eu       0.62368070       1.71705710       4.01492368
Au       2.13947022       2.80167122       6.68607393
Au       3.71599704       0.61979812       4.02084474
10
Lattice="3.4244935512542725 0.0 0.02730335295200348 -0.020112927818764403 6.161991196630187 0.08704037219285965 0.0 0.0 6.995391845703125" Properties=species:S:1:pos:R:3 sample_seed=85031 sample_index_within_seed=0 benchmark_method=FT0 dft_verified=F pbc="T T T"
Mn       0.08456645       5.06883417       2.34877143
Mn       1.80977461       1.10545395       5.79037605
As       1.80401768       3.44133430       5.45325221
Mn       0.09316776       2.31483034       3.79315433
Mn       1.79574573       4.96404494       0.29689300
As       0.09937689       0.49198470       0.41262627
Mn       0.08473001       5.29620457       5.15913548
As       1.81172119       0.20065871       3.53630812
Mn       0.09174940       2.88280512       0.27123976
As       1.80218717       3.24922714       2.08398074
