17
Lattice="5.337092399597168 0.0 0.0021126901265233755 -0.0021179359554514103 5.336954650251025 -0.0006466273334808648 0.0 0.0 7.25355339050293" Properties=species:S:1:pos:R:3 sample_seed=85000 sample_index_within_seed=0 benchmark_method=GBSA-TCL dft_verified=F pbc="T T T"
Mn       3.88760680       2.74386812       3.36273424
Mn       2.68260090       1.39551742       5.15096984
Mn       2.68266223       1.39647333       1.62199328
Mn       2.68120338       4.06338286       1.72557018
Pt       0.01199021       1.39460572       5.14842855
Mn       2.68188646       4.06316019       5.04555828
Mn       1.32836213       2.68597418       7.03483695
Mn       1.47652516       0.04439622       3.36154808
Mn       3.89213873       0.04708750       3.36191101
Mn       4.03209431       2.68673318       7.04071784
Mn       1.33335376       0.10518025       7.03561511
Mn       1.47497116       2.74426098       3.36263584
Mn       4.03204883       0.10148583       7.03893160
C        2.68260660       4.06253797       7.02373330
Pt       0.01413738       1.39557929       1.62706392
Mn       0.00809112       4.06697175       1.65135117
Pt       0.01073391       4.06327312       5.12832576
7
Lattice="4.771322727203369 0.0 1.1538296937942505 2.2446042600245724 4.209940658574187 1.1553398370742798 0.0 0.0 10.485669136047363" Properties=species:S:1:pos:R:3 sample_seed=85001 sample_index_within_seed=0 benchmark_method=GBSA-TCL dft_verified=F pbc="T T T"
Eu       2.95496657       0.78507557       5.99251105
Eu       2.35008237       3.28400001       8.51440407
Pt       2.21247322       0.33884919       9.08366280
Eu       3.77365028       4.13973841       2.58873132
Pt       3.09384224       3.73126701       5.42005129
In       4.36089847       1.62743955      10.64328784
In       5.71672003       2.44151558       5.01939096
19
Lattice="3.7311127185821533 0.0 -0.008132594637572765 -0.03357605377075604 10.024691619936942 0.07182526588439941 0.0 0.0 10.015890121459961" Properties=species:S:1:pos:R:3 sample_seed=85002 sample_index_within_seed=0 benchmark_method=GBSA-TCL dft_verified=F pbc="T T T"
Gd       2.60661716       7.69295578       0.75728340
Li       2.62968140       0.67334488       1.25921870
Gd       2.62383630       2.68628371       9.23920556
Li       2.62420761       3.30560981       6.23105699
Li       2.61374055       5.68174782       8.67450539
Gd       2.62829713       1.19400893       4.23745066
Au       0.76054083       2.38463502       1.84185685
Au       0.76745532       0.10162907       9.60469613
Au       0.74999287       5.09716531       0.40891114
In       2.60202420       9.51185491       7.54328739
Au       0.76084163       1.58586987       6.78892469
Au       0.73451844       9.45241739       2.52779934
Mg       2.61724963       4.44548091       2.44390926
Gd       2.61227573       6.37452952       5.58672169
Au       0.74373561       6.54998476       3.09156453
Au       0.73868970       8.85098665       5.36161726
Au       0.74113290       7.37414577       8.13911779
Au       0.75545965       3.86387613       4.51128457
Au       0.75239676       4.50165031       7.44523972
11
Lattice="5.518886566162109 0.0 -1.6423834562301636 -0.1818177984787029 7.282758747154819 -0.6019136309623718 0.0 0.0 10.125727653503418" Properties=species:S:1:pos:R:3 sample_seed=85003 sample_index_within_seed=0 benchmark_method=GBSA-TCL dft_verified=F pbc="T T T"
Li       0.50297089       2.00215445       3.17060623
Eu       4.26777821       3.28585167       5.75348671
Eu       3.58224042       0.21778194       3.41415467
Li       5.23041652       2.70051436      -1.13334780
Eu       1.04119017       5.10439762       4.99149936
Gd       1.43902158       1.38450962       6.32117287
Gd       2.50122783       0.92021010      -0.20726778
Eu       4.45859282       6.94344698       6.41046786
Eu      -0.01440135       6.07474273       1.43053032
Eu       2.11019178       4.52836170       8.58478401
Eu       3.16317868       3.78002218       2.01461456
8
Lattice="4.765651702880859 0.0 -1.1332013607025146 -2.519300632209195 4.208873002851351 -0.007528895512223244 0.0 0.0 10.581729888916016" Properties=species:S:1:pos:R:3 sample_seed=85004 sample_index_within_seed=0 benchmark_method=GBSA-TCL dft_verified=F pbc="T T T"
Eu       2.06156779       0.90939393       7.76225800
Eu      -2.09746277       4.13356909       0.84544788
Eu       3.36075942       1.69008736       2.61464679
Pt       1.26105610       0.43004413       4.38603331
Eu       1.44233563       3.39942159       5.15561390
Pt      -0.00612067       2.53024519       9.66270883
Pt      -0.65587614       2.13958517       6.91463952
Pt       2.69612430       1.29580731      -0.14683163
14
Lattice="6.979166030883789 0.0 -3.1693003177642822 -2.721986923170491 7.331785463275704 -0.04737424850463867 0.0 0.0 8.4967622756958" Properties=species:S:1:pos:R:3 sample_seed=85005 sample_index_within_seed=0 benchmark_method=GBSA-TCL dft_verified=F pbc="T T T"
Eu       2.20746100       3.01170001       4.19951670
Eu       1.90538202       5.66396275       0.45633235
Eu       2.18920186       0.20969888       6.87171812
Eu       4.78863484       0.07951832       3.87933310
Eu       0.00307445       1.53399292       1.74117511
Eu      -0.54302192       3.26636255       6.81180238
Eu       4.42304375       5.23364750      -2.55200825
Eu       4.03079859       2.40537698       0.65543211
Au      -0.17820727       0.79810157       4.74648092
Pt       1.32966483       5.37022051       5.89572233
Au       4.03719009       5.09305707       2.73373746
Eu      -0.87254147       5.58999994       3.74067587
Pt       2.45938929       0.02455496       1.50882273
Pt       4.43680400       2.25154476       5.97628083
9
Lattice="4.129247188568115 0.0 -0.008322572335600853 -0.017039429784352484 6.651707282303861 -3.9114060401916504 0.0 0.0 7.646897792816162" Properties=species:S:1:pos:R:3 sample_seed=85006 sample_index_within_seed=0 benchmark_method=GBSA-TCL dft_verified=F pbc="T T T"
Gd       1.51732417       4.78025290       3.12516108
Gd       3.59045030       1.81097585       2.86913602
Pt       1.52513289       2.64105201       4.99264591
Gd       3.59335888       0.75471815       6.14569255
Gd       1.52509980       3.04284849       0.14269855
Pt       1.52972491       0.36926196       1.10960093
Gd       3.58183514       5.09684305      -1.73647049
Pt       3.58667392       4.55763945       1.25169282
Pt       1.51487969       6.40499623       0.16048685
4
Lattice="3.7676024436950684 0.0 0.004638036247342825 0.002190437285996373 6.062680325582123 0.007542127277702093 0.0 0.0 6.475525856018066" Properties=species:S:1:pos:R:3 sample_seed=85007 sample_index_within_seed=0 benchmark_method=GBSA-TCL dft_verified=F pbc="T T T"
Li       0.58710395       4.98873570       3.42559012
Eu       0.59012676       1.95439188       5.55249070
Eu       2.47364979       1.95886972       2.40441375
Eu       2.47112195       4.98675326       0.19579488
12
Lattice="4.484848976135254 0.0 0.0021447623148560524 0.002138672398399546 7.361813234575355 0.015917548909783363 0.0 0.0 7.944222927093506" Properties=species:S:1:pos:R:3 sample_seed=85008 sample_index_within_seed=0 benchmark_method=GBSA-TCL dft_verified=F pbc="T T T"
Eu       1.29684759       0.06779754       1.22898904
Pt       3.54178367       5.93941225       7.53501010
Eu       3.53877099       3.74663553       5.21410939
Pt       3.53936925       1.55847551       7.52608504
Pt       1.29806313       5.93817396       6.12303170
Pt       1.29867692       5.23847371       3.56011065
Eu       1.29774684       3.75027887       0.49397397
Eu       3.54141364       0.06852169       4.45229372
Pt       3.54102877       5.24472921       2.14886048
Pt       3.53894087       2.25733250       2.14298090
Pt       1.29832909       1.55855954       6.11426373
Pt       1.29878177       2.25688602       3.55416703
8
Lattice="4.059485912322998 0.0 0.011685275472700596 -2.0063059430565757 6.535779644908144 0.01852000504732132 0.0 0.0 9.971391677856445" Properties=species:S:1:pos:R:3 sample_seed=85009 sample_index_within_seed=0 benchmark_method=GBSA-TCL dft_verified=F pbc="T T T"
Eu      -0.43981089       5.63193702       3.34764075
Eu       1.56971376       1.05936799       8.32126924
Eu      -0.45683843       1.93309410       1.48962963
Eu      -0.45223064       1.92805588       5.17371191
Eu       1.58260089       4.76048264       0.20392316
Eu       1.58462224       4.76584108       6.50069500
Cu       1.57940905       3.31202885       3.34652535
Cu      -0.45064404       3.38567999       8.31943197
3
Lattice="3.675222635269165 0.0 -0.9930631518363953 -0.2644412354940223 3.666800093157016 -1.0066930055618286 0.0 0.0 7.193069934844971" Properties=species:S:1:pos:R:3 sample_seed=85010 sample_index_within_seed=0 benchmark_method=GBSA-TCL dft_verified=F pbc="T T T"
Eu       1.86767095       1.09103285       1.86652080
Au       0.34581229       3.41122696       3.51325254
Eu       2.76781648       2.06596620       5.17296058
9
Lattice="4.286113739013672 0.0 -3.7486304790945724e-05 2.1475883200228054 7.099533247549561 -0.3609580397605896 0.0 0.0 9.146836280822754" Properties=species:S:1:pos:R:3 sample_seed=85011 sample_index_within_seed=0 benchmark_method=GBSA-TCL dft_verified=F pbc="T T T"
Eu       2.67914254       6.20726201       4.65170302
Eu       0.53327017       0.10111067       1.57819646
Au       4.82418919       2.60642570       8.59443484
Eu       4.82162756       3.08740981       5.24037934
Au       4.82602167       5.29548836       2.66689526
Eu       2.68028676       3.32375750       1.63213475
Eu       2.67906710       0.69138300       7.62365271
Au       2.67671093       1.13629853       3.95824210
Pb       2.68035126       4.81430175       7.66171207
11
Lattice="3.7908034324645996 0.0 -1.0646734237670898 -0.4803487516520594 5.977245227416681 -1.70889413356781 0.0 0.0 7.292694091796875" Properties=species:S:1:pos:R:3 sample_seed=85012 sample_index_within_seed=0 benchmark_method=GBSA-TCL dft_verified=F pbc="T T T"
Fe       1.38506168       1.80268502       2.03652128
Pt       1.48613430       4.49102164       2.39236660
Pt       0.66916070       2.39590909      -0.51879969
Mn       0.03477188       5.65470081       4.50986106
Fe       2.95194764       3.52614700       0.33322115
Pt       2.23115230       4.03467480       5.05533720
Pt      -0.12154206       2.93638821       3.95036273
Pt       3.58194861       0.17425529       2.57309192
Pt       0.75746311       5.15442640      -0.20420562
Pt       2.10601251       1.29536569       4.60880823
Pt       2.85114226       0.83984959      -0.02462720
9
Lattice="5.246031284332275 0.0 -2.4665913581848145 -0.8992588666512373 6.503700693232865 -1.85405695438385 0.0 0.0 7.771327495574951" Properties=species:S:1:pos:R:3 sample_seed=85013 sample_index_within_seed=0 benchmark_method=GBSA-TCL dft_verified=F pbc="T T T"
Eu       3.12392879       0.11238222       1.46805293
Pb       0.59498610       1.95316193       2.83441602
Eu       3.41451831       3.85430267       2.04785142
Pb       0.14708910       5.23363156       1.96560978
Pb       1.46025665       4.71965122       4.90817462
Ag       4.28990347       5.70565413      -3.26753533
Ag       0.30500857       0.60248111       6.27170548
Ag       0.95515300       3.17689807      -0.19777519
Eu       3.22488422       1.83163457      -2.15448158
11
Lattice="3.9228367805480957 0.0 0.0007639499381184578 -1.9655926639488541 3.3878413578677593 0.0014808813575655222 0.0 0.0 13.924593925476074" Properties=species:S:1:pos:R:3 sample_seed=85014 sample_index_within_seed=0 benchmark_method=GBSA-TCL dft_verified=F pbc="T T T"
Gd       2.59343811       1.28337490      13.22041805
Mn       2.59842720       1.27912546       9.93195332
Mn       0.62977971       2.40828822       3.39358223
Mn       0.63492551       0.15194403      10.81824989
Mn       0.63743440       0.14801129       4.09536620
Mn       2.59495597       1.27894564       2.68267316
Mn       0.63436006       2.41022818      11.42565437
Al       2.59487983       1.28267127       5.19589530
Al       0.63669247       0.14573475       1.57667965
Gd       0.63706711       0.14792476       7.48975443
Mn       0.63477718       2.40805802       9.31208116
8
Lattice="3.8787105083465576 0.0 -0.0011736857704818249 0.007932002846752204 6.771565083200954 -3.926974058151245 0.0 0.0 7.810117721557617" Properties=species:S:1:pos:R:3 sample_seed=85015 sample_index_within_seed=0 benchmark_method=GBSA-TCL dft_verified=F pbc="T T T"
Tl       0.64732276       0.87525539       2.91540092
Eu       2.59310250       4.86884800      -0.69844759
Cu       0.65211547       5.30380517      -3.05053941
Eu       2.58766788       0.85199738       0.18471789
Gd       2.59103858       3.60522169       3.21556311
Tl       0.65446138       5.90970210       1.87818414
Cu       0.65167383       3.11065578       0.97270177
Tl       0.64922791       2.50607969       5.73311322
8
Lattice="4.176204204559326 0.0 0.002163938246667385 -2.091752184273617 3.6134183351479865 -0.004203940276056528 0.0 0.0 12.79352855682373" Properties=species:S:1:pos:R:3 sample_seed=85016 sample_index_within_seed=0 benchmark_method=GBSA-TCL dft_verified=F pbc="T T T"
Eu       1.51672019       1.71347429       7.66702428
Pt       1.51550269       1.71651401       4.75927823
Pt      -0.57451383       2.92185209       9.77907825
Gd       3.60262584       0.51340964       3.01544866
Si       3.60370995       0.51304361       9.76730726
Au      -0.57357796       2.92192338       1.11985000
Si      -0.57419093       2.92131150       5.16753104
Eu       1.51498135       1.71784934      11.89167094
20
Lattice="5.389102458953857 0.0 -0.0007833590498194098 0.014924256146175988 5.680112782676475 -0.00454917224124074 0.0 0.0 7.765518665313721" Properties=species:S:1:pos:R:3 sample_seed=85017 sample_index_within_seed=0 benchmark_method=GBSA-TCL dft_verified=F pbc="T T T"
Gd       1.66381626       1.46615173       7.21825304
Gd       1.46854147       0.73832119       3.33790317
Fe       4.26077689       1.10048618       1.39495186
Fe       4.26061906       1.10166463       5.27947829
Gd       4.36410188       3.57718077       3.33473761
O        0.51659663       2.22286288       4.83206098
Fe       1.57216248       3.94127107       1.39430802
O        2.62677404       5.66012041       5.72002072
O        3.66472203       1.32521890       3.33478014
Fe       1.57100826       3.94050288       5.27651687
O        4.85614272       0.87562389       7.21979981
Gd       4.16772744       4.30436059       7.21645945
O        5.32104097       5.06137645       4.82765918
O        2.62626901       5.65856235       0.94695973
O        0.97366517       3.71635139       7.21989482
O        2.16986276       4.16612135       3.33372003
O        0.51875255       2.22417548       1.83930362
O        3.21245192       2.81942989       5.72180922
O        3.21386064       2.81730119       0.94739263
O        5.32116593       5.06370237       1.83617381
6
Lattice="4.8293328285217285 0.0 2.7536280155181885 1.6243683723032798 4.55542556561207 2.7718396186828613 0.0 0.0 5.576224327087402" Properties=species:S:1:pos:R:3 sample_seed=85018 sample_index_within_seed=0 benchmark_method=GBSA-TCL dft_verified=F pbc="T T T"
Au       5.37677715       1.80551399       8.18402153
Au       6.19282704       4.08099837       9.57487214
Au       5.37878171       1.80782751       5.39164526
Eu       2.95759464       0.09835409       4.01633212
Au       2.96902527       3.51504216       4.01620666
Au       2.95830670       1.80821240       6.80537232
16
Lattice="4.401978015899658 0.0 0.007495439145714045 -2.192557486059954 4.413885741091629 -2.192232131958008 0.0 0.0 8.8438138961792" Properties=species:S:1:pos:R:3 sample_seed=85019 sample_index_within_seed=0 benchmark_method=GBSA-TCL dft_verified=F pbc="T T T"
Mg       1.81291860       3.99688270       2.11505412
Mg      -0.38977991       3.98315950       4.30756213
Mn       1.81279292       4.01714337       6.54892032
Mg      -0.38752693       4.02220361      -0.07693867
Mn       1.80714495       1.82523178      -0.07940062
Mg      -0.39136566       1.80710343       2.11078524
O       -0.38827075       3.99928101       6.53309185
O       -0.39346630       1.87425167      -0.04875141
O        1.81064678       3.99763302       4.27322314
Mn       1.80940510       1.77298012       4.30383854
O       -0.38895446       3.94347239       2.11590639
O        1.80736582       1.78863451       2.10721404
O       -0.39054290       1.80175327       4.25884920
Mn      -0.39255999       1.78474055       6.52152631
O        1.81337889       4.08070993      -0.03304225
O        1.80826268       1.72369438       6.53612113
4
Lattice="4.150932312011719 0.0 -0.002592099830508232 0.0053477459893448865 4.1497920864665465 -0.0027170421089977026 0.0 0.0 4.14743185043335" Properties=species:S:1:pos:R:3 sample_seed=85020 sample_index_within_seed=0 benchmark_method=GBSA-TCL dft_verified=F pbc="T T T"
Eu       3.54194597       1.47531446       3.11939003
Pt       1.47066297       3.55226113       3.11958113
Pt       1.46598094       1.47562834       1.04865188
Pt       3.54471927       3.54979682       1.04531055
12
Lattice="4.029169082641602 0.0 0.004348111804574728 -2.0336150800728494 6.79844193524587 -0.19010686874389648 0.0 0.0 12.161444664001465" Properties=species:S:1:pos:R:3 sample_seed=85021 sample_index_within_seed=0 benchmark_method=GBSA-TCL dft_verified=F pbc="T T T"
Se       1.14835647       3.51239937       2.52989721
Gd       1.15304169       2.29874723       5.05078119
Eu       1.15233636       1.91996660       0.00394750
Gd       1.14160571       5.96971577       6.89959022
Gd      -0.87284357       5.54512840       2.68674466
Gd       1.14271009       5.65536289      10.35068738
Se      -0.86673519       3.81887601      11.22814342
Eu       3.16778187       2.75456358       8.49555329
Se       1.13866999       6.79420537       0.82198929
Se       1.15779071       0.44470819       9.10908342
Se       3.16923401       0.31516534       4.44112311
Se      -0.86970758       4.21667395       5.76639931
12
Lattice="4.658642768859863 0.0 0.0006129065877757967 -0.00026643666064189297 7.893517966542187 -0.008718534372746944 0.0 0.0 9.371625900268555" Properties=species:S:1:pos:R:3 sample_seed=85022 sample_index_within_seed=0 benchmark_method=GBSA-TCL dft_verified=F pbc="T T T"
Eu       0.28548388       1.92267722       4.46723796
Eu       2.61099299       6.17210722       9.15039188
Eu       0.28563332       4.86024749       2.24110791
Eu       2.61458835       3.22692053       6.92882811
Eu       2.61535321       7.17156984       3.59053637
Eu       0.28603506       0.91429963       8.28064992
Pt       0.28795047       0.07149044       1.88022308
Eu       2.61581218       2.22830621       1.36908675
Eu       0.28532793       5.86880563       6.05407937
Pt       2.61428263       4.06610074       3.97043327
Pt       2.61642387       0.12344936       6.55925161
Pt       0.28596127       4.01805944       8.65198589
10
Lattice="3.876558303833008 0.0 -0.8868628740310669 -0.7426051843993245 8.559930551162644 -3.244913101196289 0.0 0.0 8.931039810180664" Properties=species:S:1:pos:R:3 sample_seed=85023 sample_index_within_seed=0 benchmark_method=GBSA-TCL dft_verified=F pbc="T T T"
Eu       1.41776074       3.09071020       5.46567067
Eu       0.15758750       4.36754973      -0.07162017
Eu       2.61378268       1.97687857       1.85313974
Eu       2.88110984       5.55085395       2.92370866
Eu       3.81498702       0.60724539       7.00048666
B        2.04366799       2.34393616      -0.76513589
Eu       0.40440156       8.05191131       1.03861911
O        2.16970425       0.88934522      -0.20936127
Gd       1.61853840       7.04925109      -2.61516884
B        3.20954721       1.30532082       4.38214240
4
Lattice="3.8458006381988525 0.0 -1.1613202095031738 -0.7470604403640378 5.275481005972927 -2.4885382652282715 0.0 0.0 6.974007606506348" Properties=species:S:1:pos:R:3 sample_seed=85024 sample_index_within_seed=0 benchmark_method=GBSA-TCL dft_verified=F pbc="T T T"
Eu       0.54517723       3.43219250      -1.69425201
Eu       3.09657254       1.21893620      -0.18897447
Eu      -0.47472720       4.96925486       1.87558449
Ag       1.82023775       2.33426857       2.54698420
10
Lattice="4.259679317474365 0.0 -0.003700477071106434 -2.137495729310672 7.496437829866064 -0.01173972524702549 0.0 0.0 7.757566928863525" Properties=species:S:1:pos:R:3 sample_seed=85025 sample_index_within_seed=0 benchmark_method=GBSA-TCL dft_verified=F pbc="T T T"
Au       3.08173324       1.13927375       4.11375525
Li       0.94895583       5.84589066       4.10758700
Au       0.94461232       5.60633481       0.22979313
Au       3.08091760       1.39635163       0.23377936
Li      -1.18272555       4.19049546       0.23809109
Eu      -1.18471499       7.02860483       2.09653958
Eu      -1.18322811       7.03333042       6.11876298
Eu       0.95066414       3.00134860       5.98240301
Au      -1.18009804       4.42310187       4.11130136
Eu       0.94914359       2.99714601       2.24619859
11
Lattice="5.438779830932617 0.0 -1.6173288822174072 -0.7159339944126158 6.793902534027987 -2.4203507900238037 0.0 0.0 9.982305526733398" Properties=species:S:1:pos:R:3 sample_seed=85026 sample_index_within_seed=0 benchmark_method=GBSA-TCL dft_verified=F pbc="T T T"
Eu       3.44770117       1.18129985       1.81189036
Eu      -0.09687627       5.68617012      -0.17120883
Eu       2.27891428       0.81468081       7.85976337
Eu       3.70439807       6.56344654       2.68353355
Ni       4.52151982       6.12404622       5.43593677
Eu       2.03789972       4.64086208       7.04427952
Pb       2.99834291       4.14020889       0.29639463
Eu       0.87183515       4.26939423       3.10834763
Pb       1.32557092       1.32126927       4.62931235
Eu       4.30263795       3.32186315       4.69363293
Eu       0.02021432       2.12256183       0.23958260
16
Lattice="5.582971572875977 0.0 -0.09916245937347412 -1.9153524848752574 6.114188321393648 0.8308637142181396 0.0 0.0 9.80448055267334" Properties=species:S:1:pos:R:3 sample_seed=85027 sample_index_within_seed=0 benchmark_method=GBSA-TCL dft_verified=F pbc="T T T"
Gd       2.25533170       0.10048894       2.31266480
Li       1.55856617       5.24490057      10.03892665
Li       1.75779326       4.14681202       4.67886506
Gd       0.53562609       1.63184991       9.14661814
Li       4.16130548       4.48641861       9.98330597
Gd       3.24712273       2.98576586       7.18012039
Li       4.97793667       0.34664131       4.68297049
Pd       3.15045843       5.75566797       2.52258141
Li       2.41819223       3.37043308       2.06231675
Pd       3.35521029       1.77118179       9.92439059
Pd       0.48121868       2.41392041       6.29201312
Pd      -1.20389898       4.33084063       4.87573155
Eu      -0.45267818       2.51818407       2.80003650
Gd       0.16496943       5.63458768       7.06241488
Pd       2.66047333       1.83842533       4.48338593
Pd       2.96338942       5.96356446       7.96522191
12
Lattice="3.9658851623535156 0.0 -0.0002587787457741797 0.004652331402815499 7.926663940814202 -0.0025743418373167515 0.0 0.0 13.367180824279785" Properties=species:S:1:pos:R:3 sample_seed=85028 sample_index_within_seed=0 benchmark_method=GBSA-TCL dft_verified=F pbc="T T T"
Eu       3.74561590       7.25701805       1.86301000
Eu       1.76083808       1.31951175      12.52588311
Eu       3.74190879       3.31105133       1.84388098
Li       1.76374957       5.27767754       3.81938951
Eu       3.74550039       7.26763909       5.80135681
Eu       1.76213520       5.28656368       8.49773183
Eu       3.74488654       3.30701931       5.80371462
Li       1.75838499       1.32293501       3.81924274
Eu       1.76100865       5.28968952      12.51474209
Eu       1.75804892       1.31560340       8.48967496
Li       3.74531369       3.30138610      10.50342745
Mg       3.74405611       7.26810210      10.50953083
8
Lattice="4.167097568511963 0.0 0.010828642174601555 -2.0528944958584825 6.454319925175748 0.02576223574578762 0.0 0.0 9.673802375793457" Properties=species:S:1:pos:R:3 sample_seed=85029 sample_index_within_seed=0 benchmark_method=GBSA-TCL dft_verified=F pbc="T T T"
Eu       0.70693963       0.03362977       5.11131489
Eu       0.72275246       3.79494430       3.87319233
Eu       0.72191327       3.79587606       0.29177493
Eu       2.79595965       0.91642719       2.06795401
Eu       0.70741696       0.03551581       8.69239771
Eu       2.80024514       2.91529860       6.92715233
Pt       0.73163426       5.10061329       6.92340810
Pt      -1.35546864       5.18282911       2.08697162
4
Lattice="3.869342088699341 0.0 -1.394667148590088 -0.0007732066329416835 4.796454844141709 0.00033085208269767463 0.0 0.0 6.056927680969238" Properties=species:S:1:pos:R:3 sample_seed=85030 sample_index_within_seed=0 benchmark_method=GBSA-TCL dft_verified=F pbc="T T T"
Eu       1.78403565       1.42964720       1.05308125
Eu       0.71013976       3.82546299       4.14258143
Au       3.49494959       3.82788048      -0.25413173
Au       2.86857687       1.42639376       4.05598083
10
Lattice="4.040398597717285 0.0 -0.5945712924003601 -0.0829642278193267 3.889514256840009 -0.5528316497802734 0.0 0.0 13.94965648651123" Properties=species:S:1:pos:R:3 sample_seed=85031 sample_index_within_seed=0 benchmark_method=GBSA-TCL dft_verified=F pbc="T T T"
Eu       0.25380921       1.51618452       8.93530566
Cu       2.41105437       3.63653727       9.59358681
Eu       1.23153214       0.49099796       1.61054282
Eu       1.74071877       0.99248812       5.04398264
Cu       3.48318793       2.70426119       2.89468339
Cu       3.87615901       3.09017825       5.52080314
Eu       2.81606822       2.04656919      12.31667948
Cu       2.05123837       3.28141994       7.13771791
Cu       0.57235502       3.81615252      11.12415108
H        3.06965106       0.30759085       0.06311956
