17
Lattice="2.580524444580078 0.0 0.0006803481956012547 0.004069850165299709 6.790543290274023 -0.012261745519936085 0.0 0.0 9.423677444458008" Properties=species:S:1:pos:R:3 sample_seed=85000 sample_index_within_seed=0 benchmark_method=TCL dft_verified=F pbc="T T T"
Mn       1.93499717       3.75464287       0.76997379
Mn       1.93196087       0.48655228       2.52326937
Mn       0.64552599       4.96318981       2.86235542
Co       1.93168871       0.23238415       8.52424351
Mn       0.64736548       3.91924373       5.45173497
Mn       0.64639886       4.83664335       7.88592769
Mn       0.64489231       1.68984706       0.48665979
Co       0.64675147       6.01959645       0.80517307
Mn       1.93309221       2.44681937       7.55391222
Mn       0.64301158       0.19355170       6.46077061
Mn       0.64449306       2.64275338       2.74714999
C        1.94046674       5.33507179       9.20613433
Mn       1.93456590       1.72007950       4.75601768
Co       1.93630866       5.94081308       4.62190628
C        1.93301001       3.78507263       3.83070122
C        0.63883398       2.07689596       6.12198432
C        1.93585620       5.28930937       6.40896538
7
Lattice="6.152639865875244 0.0 -1.9902540445327759 -2.8661434206808 5.3644402565518705 -2.2144436836242676 0.0 0.0 6.45351505279541" Properties=species:S:1:pos:R:3 sample_seed=85001 sample_index_within_seed=0 benchmark_method=TCL dft_verified=F pbc="T T T"
Eu       0.88155103       1.96221677       5.01196411
Eu       3.95818388       1.95656111       0.78793909
Ge       3.95910856       1.96360174       4.02078088
Ge       2.52292135       4.63865494      -0.31919691
Eu      -0.55261229       4.63689154       0.67912624
Eu       2.52872748       4.64165351       2.90520288
Cl       0.88214326       1.95350418       1.78205029
19
Lattice="5.617256164550781 0.0 -3.6258373260498047 -2.598025119892967 5.376402653133444 -2.1943202018737793 0.0 0.0 6.238780975341797" Properties=species:S:1:pos:R:3 sample_seed=85002 sample_index_within_seed=0 benchmark_method=TCL dft_verified=F pbc="T T T"
Fe       1.90894982       1.05285566       1.42759618
Mn      -1.80245301       4.67733350       3.60962465
Mn       0.60662354       2.97599588       2.90371140
Fe       2.00466858       4.96297937      -4.37141431
Mn      -0.54582557       4.53322552       1.21683600
Mn       1.16821271       1.65391328      -0.95605047
Fe       2.88287461       1.44941248      -2.54773434
Mn       1.63942787       3.36941389       0.51483473
Mn       0.09657581       0.67455119       3.33050089
C        4.10968828       3.06917818      -1.79219697
Mn      -0.31225959       1.86692610       0.98584442
Mn       3.46628065       3.01878254      -4.04314415
Mn       4.24204039       0.45914967       1.76040319
C       -1.72561628       4.91130799      -0.44335365
Mn       3.62318368       2.17791864      -0.20738736
Mn      -0.01470334       3.91478695      -1.05947774
Mn       3.11340633       0.02669169      -0.55880382
Fe       2.38269091       3.83194552      -1.87547565
C       -0.55911569       2.18496440       4.61797236
11
Lattice="6.565502643585205 0.0 -0.8350770473480225 0.3573532345835699 6.2258977963308295 -3.4503862857818604 0.0 0.0 9.209925651550293" Properties=species:S:1:pos:R:3 sample_seed=85003 sample_index_within_seed=0 benchmark_method=TCL dft_verified=F pbc="T T T"
Lu       2.90459863       5.30382329      -2.95777163
Eu       4.16555348       2.01287305       2.69885599
Eu       5.33055382       4.46946799      -0.25189579
Eu       6.17575593       2.92808995       5.56782740
Lu       1.20490391       3.63702826       3.25255005
Eu       2.30124322       2.52282047      -0.61289623
Si       0.77886321       0.04806523       7.54027535
Eu       6.15149705       0.68576823       0.22371800
Eu       4.48385815       6.03783409       3.11876996
Eu       1.42111664       0.19677825       4.35495846
Si       2.95219605       2.65840613       5.40776565
8
Lattice="4.212352752685547 0.0 -1.375302791595459 -2.282714569834483 5.170054802977481 0.20255468785762787 0.0 0.0 7.151084899902344" Properties=species:S:1:pos:R:3 sample_seed=85004 sample_index_within_seed=0 benchmark_method=TCL dft_verified=F pbc="T T T"
Eu      -0.95359836       4.98991290       0.60925230
Zn       1.78133255       4.42914067       1.84218346
Eu       0.31027356       4.00895778       4.49165588
Pd       2.08660071       1.85125039       2.76348013
Zn       2.91043711       1.97422474       5.28310727
Zn       0.40194761       1.06252441       4.73833929
Zn      -0.46290576       2.02511016       2.09668731
Pd       1.19556871       2.72333853       0.05121065
14
Lattice="6.448904991149902 0.0 -2.746415376663208 -0.3632125828128218 7.789357461839386 -0.8545902967453003 0.0 0.0 9.130186080932617" Properties=species:S:1:pos:R:3 sample_seed=85005 sample_index_within_seed=0 benchmark_method=TCL dft_verified=F pbc="T T T"
Eu       2.12677943       5.91937164       4.73300572
Eu       4.08117736       6.76228654       1.37381578
Eu       4.85199081       0.09159866      -1.32242515
Eu       1.76780845       1.48021120       1.42938050
Eu       0.34174138       0.94690203       7.19532177
Eu       0.72019758       5.36273294       1.36791013
Eu       3.15569361       2.02802204       4.82171868
Eu       3.04383657       3.99230143      -1.06518047
Eu       5.88250479       2.87520485       1.12866229
Si       3.31159230       3.95321353       2.42961509
Si       1.78924275       6.80363456      -1.23445421
Eu       5.77082353       4.84080907       4.37693826
Si       0.70110513       0.06513962       4.01496042
Si       5.61167507       2.90779001      -2.32159550
9
Lattice="4.223297595977783 0.0 -0.009745102375745773 -0.04221409093160061 7.197670169531481 -4.199118137359619 0.0 0.0 8.343026161193848" Properties=species:S:1:pos:R:3 sample_seed=85006 sample_index_within_seed=0 benchmark_method=TCL dft_verified=F pbc="T T T"
Gd       3.81990712       5.08298741       4.34094337
Gd       1.69405962       6.84358771      -1.72970970
Gd       1.71295041       4.01025062       1.69263616
Gd       3.84056612       1.39731913       0.18039980
Gd       1.72064366       2.49361718       5.85813338
Pb       3.83568658       2.04864584       3.32992160
Gd       3.80911407       6.84916447       1.29092302
Si       1.69660806       6.84181588       3.32779002
Pb       3.82104942       4.44648079      -0.84257476
4
Lattice="3.7131707668304443 0.0 0.9380278587341309 1.7521585750100501 3.27039484428323 0.9354256391525269 0.0 0.0 7.930024147033691" Properties=species:S:1:pos:R:3 sample_seed=85007 sample_index_within_seed=0 benchmark_method=TCL dft_verified=F pbc="T T T"
Eu       3.23684825       1.82110675       4.33853011
I        2.02616638       1.09622694       1.29201862
Eu       0.80422853       0.36385564       6.18557112
N        4.75403428       2.72943519       6.19719901
12
Lattice="5.493144512176514 0.0 0.00644136406481266 0.002976206961615819 7.356447094641937 0.023830188438296318 0.0 0.0 10.0030517578125" Properties=species:S:1:pos:R:3 sample_seed=85008 sample_index_within_seed=0 benchmark_method=TCL dft_verified=F pbc="T T T"
Eu       1.31853115       2.69194857       7.96475253
Eu       1.31747398       3.99202282       1.63247378
Eu       4.06562265       1.14571735       0.07889532
Sn       1.32076847       4.29497150       4.90322758
Eu       1.31956885       6.37452862       8.76770629
Eu       4.06815373       6.12646471       2.97453683
Eu       4.06396059       2.45491941       3.75385936
Sn       4.06727788       0.84984829       6.80996328
Sn       1.32097155       0.60681472       1.81232081
Eu       1.32031893       0.32234691       5.07506098
Sn       4.06481039       4.53113291       9.91390418
Eu       4.06248927       4.81989331       6.64608576
8
Lattice="4.094390869140625 0.0 0.016214238479733467 0.02412730904269624 5.644210745571443 0.03688986971974373 0.0 0.0 8.710049629211426" Properties=species:S:1:pos:R:3 sample_seed=85009 sample_index_within_seed=0 benchmark_method=TCL dft_verified=F pbc="T T T"
Eu       3.64586412       2.97740647       8.51001746
Cu       1.60357027       4.39366628       1.85954961
Cu       1.59074532       1.57284570       1.84143983
Eu       1.59090982       0.14758497       7.54617860
Eu       1.59124859       2.99677895       4.85556130
Cu       3.63619780       0.15851875       1.09248098
Eu       3.62885424       0.16496684       3.90282922
Cu       3.64108645       2.98585367       2.61306459
3
Lattice="3.8625881671905518 0.0 -2.1989099979400635 0.020778792946247262 4.285699540590442 -0.002373834839090705 0.0 0.0 4.439194679260254" Properties=species:S:1:pos:R:3 sample_seed=85010 sample_index_within_seed=0 benchmark_method=TCL dft_verified=F pbc="T T T"
Eu       3.18139632       1.18608471       0.74695701
Au       1.90354833       3.32551314       2.96264736
As       0.61098226       3.32699806       0.73636196
9
Lattice="4.215204238891602 0.0 0.005116186570376158 -2.1006195743826344 5.015789485578453 -0.33933210372924805 0.0 0.0 7.709683418273926" Properties=species:S:1:pos:R:3 sample_seed=85011 sample_index_within_seed=0 benchmark_method=TCL dft_verified=F pbc="T T T"
Cu      -0.36799801       3.86756278       6.57009122
Pd       1.74173006       4.55890858       5.26368532
Cu      -0.36489673       4.80840898       0.99809765
Eu       1.73617706       1.71816232       6.60032868
Eu       1.74066841       3.07329194       2.56938461
Pd      -0.36841034       0.97011331       2.02427236
Pd      -0.37072110       2.33343514       4.54430101
Be       1.73791610       4.70812826      -0.19904035
Pd       1.73477280       0.22641133       3.92371558
11
Lattice="5.434121608734131 0.0 -3.1896376609802246 -1.8291953921327606 4.995223770955992 -3.06520414352417 0.0 0.0 6.201999187469482" Properties=species:S:1:pos:R:3 sample_seed=85012 sample_index_within_seed=0 benchmark_method=TCL dft_verified=F pbc="T T T"
Dy       3.80868539       0.88937494       0.55603407
Fe       1.65263988       3.00172134       1.11693399
Fe      -0.70997386       4.60687268       1.16445164
Fe      -0.71673575       2.16356309       1.13638485
Fe       1.08855488       0.89207081       2.15355689
Fe       0.47251188       3.76778265      -0.89452493
Ge       2.88862873       3.38714596      -0.96677545
Ge       0.80247039       1.36534393      -0.53028825
Ge       3.30085805       0.42328658       3.70933918
Ge       0.30010863       3.35651403       3.04871821
Ge       3.54973539       3.41538349      -3.84731832
9
Lattice="5.899278163909912 0.0 -0.48472848534584045 -3.8140456738676676 5.641534741120362 -0.5212295055389404 0.0 0.0 7.093515872955322" Properties=species:S:1:pos:R:3 sample_seed=85013 sample_index_within_seed=0 benchmark_method=TCL dft_verified=F pbc="T T T"
Eu      -1.40602123       3.89262634       1.86404699
Ag       0.53430701       3.46677211       4.43091478
Eu       5.41519711       0.27420847       2.99077961
Eu       0.48788567       1.02239210       6.86671715
Ge       2.00669596       2.08022451       2.43147247
Ge       1.26917120       4.01395527       0.04892356
Ag       3.47295428       0.68997592       0.43185032
Ge       2.75492530       0.14683586       4.82250229
Eu       3.51442996       3.14712210       5.06965384
11
Lattice="2.805973768234253 0.0 0.0003219990467187017 0.003149010869878385 2.81173863503783 0.002356902463361621 0.0 0.0 17.989992141723633" Properties=species:S:1:pos:R:3 sample_seed=85014 sample_index_within_seed=0 benchmark_method=TCL dft_verified=F pbc="T T T"
Mn       0.42735664       2.75675851       1.25744728
Mn       1.83184164       1.34226773       6.00855982
Mn       0.45714820       2.74789806      13.90062984
Mn       0.45653932       2.73463360      11.05306593
Mn       0.43983389       2.75684080      16.28189868
Mn       1.85479111       1.33873563      12.47073304
Hf       0.44296224       2.73492705       7.96217027
Mn       1.83310181       1.35043871      17.81086518
Zn       0.42125416       2.74210304       4.44371435
Mn       1.82607883       1.35146329       2.64037318
Mn       1.85116335       1.33682549       9.67790782
8
Lattice="6.159749984741211 0.0 -0.0002646170323714614 0.030257682415357756 6.530140872086411 -3.7842323780059814 0.0 0.0 7.542499542236328" Properties=species:S:1:pos:R:3 sample_seed=85015 sample_index_within_seed=0 benchmark_method=TCL dft_verified=F pbc="T T T"
Eu       5.02737986       1.66818060      -0.22357755
Eu       5.04625857       4.93233674       1.66292977
Eu       1.95493420       2.73706687       1.71715103
Eu       1.96893585       6.02847394       3.55120402
Eu       1.96669380       6.09347792      -0.22458222
Eu       5.04130382       4.94943781      -2.11291763
Eu       1.94872982       2.74053040       5.38457757
Mg       5.02861119       1.67798795       3.55069901
8
Lattice="4.187229156494141 0.0 -0.0002043380809482187 -0.0008613204366720249 4.519014276437022 -0.0054535456001758575 0.0 0.0 5.157581329345703" Properties=species:S:1:pos:R:3 sample_seed=85016 sample_index_within_seed=0 benchmark_method=TCL dft_verified=F pbc="T T T"
Mn       4.02987059       4.17290728       4.71409895
Mn       1.93477902       3.42513142       3.42743196
Mn       1.93320153       1.13376318       4.72630750
Ge       1.93495416       3.40192521       0.84733934
Mn       4.02900023       1.88571766       0.85073388
Ge       4.02911318       1.90200349       3.42990660
Mn       4.02946008       4.17790703       2.13832478
Mn       1.93378743       1.12517293       2.13693578
20
Lattice="6.225168228149414 0.0 0.005832618568092585 0.06610085964788164 6.287425676692498 -0.016598591580986977 0.0 0.0 5.636695861816406" Properties=species:S:1:pos:R:3 sample_seed=85017 sample_index_within_seed=0 benchmark_method=TCL dft_verified=F pbc="T T T"
Mn       5.68833426       5.91179796       4.29490604
Mn       1.33515218       5.27702311       2.89538007
Mn       0.04494761       1.53007164       2.88002412
Mn       0.03616956       1.52081217       0.09960732
Mn       2.56336848       2.75146602       0.07637894
Mn       3.20083557       4.64377203       4.28963593
Mn       0.68139773       3.40508380       4.31298858
Co       2.53077490       2.75973435       2.90897325
Mn       3.75636095       0.25159664       0.10233500
Co       4.42516461       2.10488530       4.30691789
Mn       3.19207071       4.61988334       1.48077084
Co       1.89207256       0.86636693       1.48270019
Mn       5.69192984       5.87065721       1.47459720
Co       1.90628479       0.86766734       4.30655989
Mn       3.75590977       0.26592689       2.89515306
Co       4.40937670       2.13388346       1.49994006
Co       1.34761820       5.26044261       0.06601407
Co       5.03904856       4.01834931       2.90706937
Co       5.02823546       4.03172673       0.07560452
Co       0.69752752       3.39494654       1.47251074
6
Lattice="6.025794506072998 0.0 -0.023071004077792168 0.016775959067365603 5.748099642163404 -3.2980031967163086 0.0 0.0 6.623410224914551" Properties=species:S:1:pos:R:3 sample_seed=85018 sample_index_within_seed=0 benchmark_method=TCL dft_verified=F pbc="T T T"
Y        3.82445987       1.65021869      -0.93927919
Eu       3.82589118       5.40331780      -0.93201116
Y        0.80893086       3.48892925      -1.98339246
Eu       0.79872535       1.60355457       1.28069610
Eu       3.82588564       3.52284490       2.43325061
Eu       0.82546246       5.46421049       1.33483773
16
Lattice="4.908057689666748 0.0 0.23719437420368195 0.18439652512333235 4.974483552346146 -0.7449085116386414 0.0 0.0 6.5233917236328125" Properties=species:S:1:pos:R:3 sample_seed=85019 sample_index_within_seed=0 benchmark_method=TCL dft_verified=F pbc="T T T"
Mn       4.06648282       3.75341908       5.82422682
Mn       3.42699015       4.26789538       3.37150498
Mn       1.56023376       2.34744315       2.99770621
C        2.21161187       0.92565187       4.28958526
Mn       0.83897999       1.85497384       5.32816807
Mn       0.96491868       3.36115925       0.78572558
C        4.36213678       4.42758294       1.55651440
Mn       3.37259306       2.70074421       1.40114074
Mn       1.64047204       4.38875892       5.15128968
Mn       0.91118615       4.83260452       2.77609535
Mn       3.95339416       1.77794224       3.67070069
C        1.79359269       1.60703059       0.66903475
Mn       3.27718758       1.19878840       5.99366862
Mn       2.56240624       0.24759864       1.77143130
C        0.19040252       3.36667271       4.01290365
Mn       0.11360161       0.89488745       1.12206149
4
Lattice="2.7679123878479004 0.0 -0.004114076029509306 -1.370881247478337 2.395960904236086 -0.0007385499193333089 0.0 0.0 8.41033935546875" Properties=species:S:1:pos:R:3 sample_seed=85020 sample_index_within_seed=0 benchmark_method=TCL dft_verified=F pbc="T T T"
Be       0.24445959       1.11534043       6.87381325
Pt       1.63676430       1.90911454       0.17792052
Pt       0.25081655       1.11230414       2.65889923
Pt       1.63947005       1.91452491       5.14292311
12
Lattice="3.9797260761260986 0.0 0.003014767775312066 -1.9862704243960823 3.449646482174349 -0.009568551555275917 0.0 0.0 9.920843124389648" Properties=species:S:1:pos:R:3 sample_seed=85021 sample_index_within_seed=0 benchmark_method=TCL dft_verified=F pbc="T T T"
Fe       1.32546472       1.42174629       8.64007188
Fe       1.32808403       1.42189371       6.15782562
Fe       1.32728017       1.42062476       3.70237167
Fe       3.31597404       0.27301589       7.81972449
Fe       3.31709210       0.27224453       0.36837631
Fe       3.31712814       0.27221901       2.85559478
Si      -0.66568518       2.57193135       2.09713633
Si       3.31707423       0.27536990       5.32042392
Fe       1.32865311       1.42218702       1.19769008
Fe      -0.66080340       2.57181497       4.51762500
Fe      -0.65959350       2.57289692       6.95692637
Si      -0.66064677       2.57102068       9.41391809
12
Lattice="4.386716365814209 0.0 -0.0032204408198595047 -0.001509717875570787 7.1276424716428295 0.08180888742208481 0.0 0.0 7.868413925170898" Properties=species:S:1:pos:R:3 sample_seed=85022 sample_index_within_seed=0 benchmark_method=TCL dft_verified=F pbc="T T T"
Eu       3.59642462       6.66384866       1.63888508
Eu       3.59503817       3.13524778       0.53657954
Eu       1.40386530       2.85278231       5.42512425
Mg       1.40296923       6.41237192       4.48829514
Ga       1.40199499       5.44770974       7.44547813
Pt       3.59586110       1.40169783       3.86542151
Pt       3.59593102       5.12055529       6.00576799
Pt       1.40216623       4.52628189       2.24245472
Ga       1.40188243       1.83259814       2.43721518
Pt       1.40331414       0.93745825       7.78945055
Ga       3.59619445       4.10770727       3.56711236
Ga       3.59710315       0.52738257       6.32025613
10
Lattice="3.7040655612945557 0.0 0.003291661385446787 -1.8534730180775236 5.587250271383984 0.004464240279048681 0.0 0.0 7.354689121246338" Properties=species:S:1:pos:R:3 sample_seed=85023 sample_index_within_seed=0 benchmark_method=TCL dft_verified=F pbc="T T T"
Ge       1.40036794       3.15217699       5.00727324
Sm       1.40192188       0.06321274       4.98825210
Mn       1.40448925       4.18804425       2.76024189
O        3.25287152       0.50537097       3.16233626
Mn      -0.44978047       2.38106029       6.43584759
Mn       1.40141319       4.20876812       7.24476271
Sm       1.40506855       0.94321849       1.32713652
O        3.25788648       0.50622497       6.83346876
Mn      -0.45053002       2.40068002       3.56174334
Ge      -0.45165972       3.44580274       1.31708905
4
Lattice="3.5460727214813232 0.0 -0.0021010974887758493 0.002046842697575363 3.5410066887715383 -0.006906906142830849 0.0 0.0 8.56540584564209" Properties=species:S:1:pos:R:3 sample_seed=85024 sample_index_within_seed=0 benchmark_method=TCL dft_verified=F pbc="T T T"
Eu       0.31375858       0.02993094       4.56179797
Eu       0.31744396       0.02702680       1.09048759
Li       2.08941926       1.79464866       7.14315411
Rh       2.08966873       1.79695217       2.82783594
10
Lattice="3.439060688018799 0.0 -0.0020012042950838804 -0.006580483216475588 3.4379474127983127 0.0006891938974149525 0.0 0.0 16.990568161010742" Properties=species:S:1:pos:R:3 sample_seed=85025 sample_index_within_seed=0 benchmark_method=TCL dft_verified=F pbc="T T T"
Gd       1.92683546       1.00298832       6.84129557
Gd       1.92222519       1.00575491       0.08321082
Dy       1.92510582       1.00373022       3.46592183
Gd       1.92486139       0.99981435      13.65254711
Gd       1.92198259       1.00045707      10.24811816
Rh       0.20229124       2.72215844       5.13376124
Rh       0.19988893       2.72305802       1.80807269
Rh       0.20131828       2.72225864      15.36632154
Rh       0.20177081       2.72232053       8.54092920
Rh       0.20181580       2.71877094      11.94787886
11
Lattice="4.2141313552856445 0.0 -1.110745906829834 -0.9533379487319136 6.917039004196302 -3.600031614303589 0.0 0.0 8.604576110839844" Properties=species:S:1:pos:R:3 sample_seed=85026 sample_index_within_seed=0 benchmark_method=TCL dft_verified=F pbc="T T T"
Eu       1.85823699       6.57880357      -1.04293140
Mg       0.99792900       6.48604339       4.27632504
Mg       1.36689158       3.79999180       5.66987776
Eu       3.58511968       1.30439763       5.52595677
Mg       0.23063815       1.40068937       1.31470895
Eu       2.72038682       3.93902592       2.23829717
Cu       1.98610970       2.38614344      -0.57386687
Cu       0.93198895       1.64105576       3.99297124
Cu       0.29734672       6.23841147       1.59747610
Mg      -0.13670800       4.08417055      -0.07827332
Cu      -0.75721204       5.49777422      -2.44403542
16
Lattice="4.250293731689453 0.0 0.004195080604404211 -2.1059266622909685 5.489213189111036 -1.8919607400894165 0.0 0.0 7.967526912689209" Properties=species:S:1:pos:R:3 sample_seed=85027 sample_index_within_seed=0 benchmark_method=TCL dft_verified=F pbc="T T T"
Mn       1.03898095       1.89292705       1.38807046
Mn       3.16681330       1.77299827       7.03702576
Mn       1.03466466       0.44267798       3.24072643
Mn       1.04434608       4.60741976       5.60368852
Mn      -0.00471715       5.27146139       3.48967699
Fe       1.03956940       3.06975478       3.47211756
Mn       1.04229496       1.98014248       5.40752856
Mn       1.03510399       0.51542691       7.52174885
Mn       1.03740941       3.13887766      -0.50850234
Fe       3.16032808       0.55628707       1.42925377
Mn       2.10891758       5.26828477       3.48767804
Mn      -1.07759013       3.27813639       1.82245210
Fe       1.04880040       4.53369996       1.37274282
Mn      -1.08724650       3.47626215       5.04769125
Mn       3.17442035       1.54855329       3.79944911
Mn      -1.08067259       4.46440203      -0.56692912
12
Lattice="4.704093933105469 0.0 -0.7710137963294983 -1.0121377569624885 4.617621203455418 -0.7952316403388977 0.0 0.0 4.7721405029296875" Properties=species:S:1:pos:R:3 sample_seed=85028 sample_index_within_seed=0 benchmark_method=TCL dft_verified=F pbc="T T T"
Mn      -0.43713351       2.23987181      -0.19955788
Fe       0.88461866       2.92684470       2.32266497
Fe       3.17033821       1.53342670       1.48344600
C        2.56567984       2.57099161       3.02090895
Mn       3.19815308       4.25831561       2.31415743
C        3.65908358       0.66204419      -0.08694336
Mn       0.70585060       0.27051313       1.43849464
Mn       1.96140053       3.60763822      -0.16715606
C        1.42517865       4.50118857       1.39174433
Fe       1.90770390       0.88161610       3.73303401
C        0.18736793       1.26814837       2.97008847
C        0.21944699       3.89924232       3.85033702
8
Lattice="4.513437747955322 0.0 0.03212747350335121 0.05374004311484469 5.926804573116776 0.052080150693655014 0.0 0.0 7.6731977462768555" Properties=species:S:1:pos:R:3 sample_seed=85029 sample_index_within_seed=0 benchmark_method=TCL dft_verified=F pbc="T T T"
Pd       0.53516006       0.28589491       2.81776602
Eu       0.57684487       4.63442737       5.58215277
Eu       0.56214256       3.22338808       1.72604848
Eu       2.79418242       0.26062964       0.67109470
Pd       0.54636148       1.64136725       6.66894215
Eu       2.80502183       1.65794297       4.50986200
Pd       2.82204418       3.25692000       7.24928018
Pd       2.83191296       4.60165780       3.43904013
4
Lattice="4.421542644500732 0.0 -1.8261610269546509 -0.7636104573884952 4.361905992378231 -1.8317654132843018 0.0 0.0 6.291506290435791" Properties=species:S:1:pos:R:3 sample_seed=85030 sample_index_within_seed=0 benchmark_method=TCL dft_verified=F pbc="T T T"
Gd       3.79829989       2.05398084      -0.41934338
Gd       1.20854667       4.23560994      -0.41882023
Dy       0.67198194       0.95944791       4.55585069
Pb       2.50532232       3.14513448       2.73147892
10
Lattice="4.2810444831848145 0.0 0.007431395351886749 -0.01326719251029057 4.282026718613572 -0.001381491543725133 0.0 0.0 10.574553489685059" Properties=species:S:1:pos:R:3 sample_seed=85031 sample_index_within_seed=0 benchmark_method=TCL dft_verified=F pbc="T T T"
Al       1.60160519       3.69820438       1.01989161
Al       3.75064279       1.55718834       3.66544263
Al       1.60868224       1.55777677       7.62847328
Eu       3.74999612       1.55671591      10.27912486
Cu       1.60927665       1.55736866       2.34001495
Cu       3.74984184       1.55775316       6.23904764
Eu       1.60257223       3.69826155       4.97798287
Pd       3.74324262       3.69870999       2.34361287
Al       3.74449461       3.69883454       7.63192511
Cu       1.60418189       3.69762884       9.01590122
