12
Lattice="4.484848976135254 0.0 0.0021447623148560524 0.002138672398399546 7.361813234575355 0.015917548909783363 0.0 0.0 7.944222927093506" Properties=species:S:1:pos:R:3 pbc="T T T"
Eu       1.29684759       0.06779754       1.22898904
Pt       3.54178367       5.93941225       7.53501010
Eu       3.53877099       3.74663553       5.21410939
Pt       3.53936925       1.55847551       7.52608504
Pt       1.29806313       5.93817396       6.12303170
Pt       1.29867692       5.23847371       3.56011065
Eu       1.29774684       3.75027887       0.49397397
Eu       3.54141364       0.06852169       4.45229372
Pt       3.54102877       5.24472921       2.14886048
Pt       3.53894087       2.25733250       2.14298090
Pt       1.29832909       1.55855954       6.11426373
Pt       1.29878177       2.25688602       3.55416703
