7
Lattice="4.831066608428955 0.0 -1.669981598854065 -2.358460735727505 4.209930366445691 -1.658891201019287 0.0 0.0 5.0887861251831055" Properties=species:S:1:pos:R:3 pbc="T T T"
O       -0.74624539       2.55826875       2.16492510
Eu       2.84969386       0.45527915      -0.38212388
Eu       1.67602375       2.56148795       1.33498178
O        1.66626693       2.56416965      -1.20976224
Eu      -0.73705219       2.55754481      -0.37525701
O        0.43785445       0.45224890       0.45097000
O        2.84659194       0.45771362       2.16464775
