19
Lattice="5.617256164550781 0.0 -3.6258373260498047 -2.598025119892967 5.376402653133444 -2.1943202018737793 0.0 0.0 6.238780975341797" Properties=species:S:1:pos:R:3 pbc="T T T"
Fe       1.90894982       1.05285566       1.42759618
Mn      -1.80245301       4.67733350       3.60962465
Mn       0.60662354       2.97599588       2.90371140
Fe       2.00466858       4.96297937      -4.37141431
Mn      -0.54582557       4.53322552       1.21683600
Mn       1.16821271       1.65391328      -0.95605047
Fe       2.88287461       1.44941248      -2.54773434
Mn       1.63942787       3.36941389       0.51483473
Mn       0.09657581       0.67455119       3.33050089
C        4.10968828       3.06917818      -1.79219697
Mn      -0.31225959       1.86692610       0.98584442
Mn       3.46628065       3.01878254      -4.04314415
Mn       4.24204039       0.45914967       1.76040319
C       -1.72561628       4.91130799      -0.44335365
Mn       3.62318368       2.17791864      -0.20738736
Mn      -0.01470334       3.91478695      -1.05947774
Mn       3.11340633       0.02669169      -0.55880382
Fe       2.38269091       3.83194552      -1.87547565
C       -0.55911569       2.18496440       4.61797236
