8
Lattice="5.792543888092041 0.0 -2.9423604011535645 -2.833396724511033 3.2864421330973927 -1.5554581880569458 0.0 0.0 6.001491546630859" Properties=species:S:1:pos:R:3 pbc="T T T"
P        3.16291436       0.35097477      -0.56871866
P       -0.23103367       1.91580420       1.22501376
Rh      -1.32173114       1.99131559       3.41598973
Rh       1.32452886       0.67204815       2.55117593
Rh       4.22605564       0.24317721       3.18080060
Rh       1.91771098       2.26745094      -1.05687166
P        0.25623788       0.66649563       4.59935074
P        3.15051713       2.24150294      -3.41181829
