8
Lattice="6.782481506657755 -0.36183355100575454 -3.4313734285930733 -3.239499997831205 3.0193853832683946 -1.25603168634057 -0.40128059557457585 0.2990125423335914 6.208934553553408" Properties=species:S:1:pos:R:3:forces:R:3 structure_index=0 total_energy=-54.342124938964844 stress="-0.04563993215560913 0.0025511805433779955 0.0010825671488419175 0.002551264362409711 -0.022440476343035698 -0.0035893446765840054 0.0010837593581527472 -0.003591318381950259 -0.03697572648525238" pbc="T T T"
P        4.02792207      -0.05823538      -1.08369442       0.00082897      -0.04830647       0.00972977
P       -0.64209632       2.16504835       1.30147693      -0.00414675       0.02940101      -0.01644319
Rh      -1.61776652       2.00605179       3.55475919      -0.00914803      -0.00676613      -0.00841115
Rh       0.88039889       0.85434990       2.77390566      -0.00443284       0.03889358       0.00531167
Rh       4.73324170       0.33863591       2.72995587       0.00406387       0.02127382      -0.01916143
Rh       2.38852826       1.72303666      -1.06249039       0.01012591      -0.03251636       0.01601066
P       -0.02859637       0.65890126       5.03237776       0.00056729      -0.01917367       0.01550484
P        3.40441000       1.76361785      -3.28716228       0.00214145       0.01719413      -0.00254124
