16
Lattice="3.0680952697847848 0.04511992572824698 0.3704439470712759 1.6330091485768345 5.237495435408033 0.0844970287424692 -0.20779613898969557 -0.0455434302531385 11.386168824288351" Properties=species:S:1:pos:R:3:forces:R:3 structure_index=0 total_energy=-111.33596801757812 stress="0.021878084167838097 -0.0008521508425474167 -0.0003249279106967151 -0.0008515752851963043 0.019537746906280518 0.0040007466450333595 -0.0003238356439396739 0.004000955726951361 0.024462642148137093" pbc="T T T"
Mn       2.84241319       2.83228407       2.95805692       0.00788322      -0.01490621      -0.01499022
Mn       1.52195844       0.42218962       1.50089409       0.01502046      -0.01733647       0.01811945
Fe       2.04653901       1.65885997       7.82066613       0.00984546       0.03763553       0.00440333
Mg       3.19100248       1.27025092      10.69151486       0.00730972      -0.00098601      -0.01327706
O        2.20826888       0.43011609       6.23541226      -0.04133093       0.01075701       0.01771706
Mn       2.54845924       0.02325419       4.30822232      -0.01832554      -0.00170243       0.00401488
O        3.25068845       1.70339936       1.27966981       0.01892447      -0.02313543      -0.00956078
O        3.24211602       5.16121495      11.05885869       0.02211682       0.00915062      -0.01194511
Fe       2.26063450       4.36843281       6.62871784      -0.02773666       0.02237324       0.00404438
Fe       3.41120377       4.02292418       9.51506522       0.03142380       0.01721286       0.01182919
O        1.81508309       2.59990518       9.69733018       0.04288200       0.00766173       0.00796250
O        0.37055553       0.05242384       8.44660301      -0.03322250      -0.00628728       0.02263705
O        3.66665529       3.22660916       7.58039594      -0.01159961      -0.00253069      -0.00743328
O        1.30209711       4.34110045       2.22371392       0.01066154      -0.01789841      -0.01739790
O        2.41103901       3.93539670       4.70839016      -0.02673697       0.00502777       0.00321269
O        1.31957944       1.26834398       3.36460161      -0.00711510      -0.02503583      -0.01933622
