10
Lattice="4.259679317474365 0.0 -0.003700477071106434 -2.137495729310672 7.496437829866064 -0.01173972524702549 0.0 0.0 7.757566928863525" Properties=species:S:1:pos:R:3 pbc="T T T"
Au       3.08173324       1.13927375       4.11375525
Li       0.94895583       5.84589066       4.10758700
Au       0.94461232       5.60633481       0.22979313
Au       3.08091760       1.39635163       0.23377936
Li      -1.18272555       4.19049546       0.23809109
Eu      -1.18471499       7.02860483       2.09653958
Eu      -1.18322811       7.03333042       6.11876298
Eu       0.95066414       3.00134860       5.98240301
Au      -1.18009804       4.42310187       4.11130136
Eu       0.94914359       2.99714601       2.24619859
