4
Lattice="2.661312689962196 0.004312005507627664 0.5348130402962472 1.2700105810680544 2.3386101047460834 0.5354490273455771 0.005746090059511297 0.002835509519496856 6.800513430514149" Properties=species:S:1:pos:R:3:forces:R:3 structure_index=0 total_energy=-29.073135375976562 stress="0.12332186847925186 -0.04649228975176811 -0.02111154794692993 -0.04649229720234871 0.16863630712032318 -0.007599574979394674 -0.02111140824854374 -0.007598805706948042 -0.050243835896253586" pbc="T T T"
Fe       1.26891970       2.18991422       2.08190704      -0.01131029      -0.00734665       0.03304434
Fe       2.17410200       1.14658210       4.43192536       0.00421422       0.00328596      -0.00439778
H        1.08475713       0.49832175       2.99415232       0.00253117       0.00095564      -0.00793588
Ir       3.05310649       1.67017548       6.93219624       0.00456487       0.00310508      -0.02071068
