16
Lattice="5.335163593292236 0.0 3.0868875980377197 1.7934471529643476 5.052369302671022 3.08272385597229 0.0 0.0 6.187392711639404" Properties=species:S:1:pos:R:3 pbc="T T T"
Mn       3.63538527       1.01732778       4.99513237
Mg       4.53204893       3.54288944       6.53578039
O        6.38598799       4.77887874       9.62381418
Ni       1.86381172       3.54156982       8.08699050
Ni       0.96721204       1.01601629       3.45155385
O        5.44503081       2.30843898       8.01987795
Mn       4.53087397       3.54322732       9.63017543
Mn       0.96942825       1.01686258       6.54594567
Mn       3.63386856       1.01661693       8.08908663
O        6.30529119       4.73028965       6.53068741
O        3.61875327       4.77745975       5.05241259
O        2.67566316       2.30496151       3.44747756
O        5.44471304       2.30965350       5.05498552
O        2.75778930       2.35505588       6.54134969
Ni       1.86381796       3.54237026       4.99289909
O        3.61623833       4.77661263       8.01844390
