11
Lattice="5.396184921264648 0.0 -0.07565180212259293 2.0372196551859076 7.525325203685546 1.1308661699295044 0.0 0.0 5.677761077880859" Properties=species:S:1:pos:R:3 pbc="T T T"
Zn       1.23451143       4.09165776       3.76536809
Dy       1.90035732       6.99681259       1.23067372
Zn       5.84191503       6.41697215       4.05071541
Dy       5.14284691       1.70202593       2.36596002
Zn       3.06610167       6.40105197       4.14524876
Dy       2.38587476       3.46199818       1.01621826
Zn       3.83500155       4.05428011       3.80952963
Dy       4.83100839       5.23041046       1.09572501
Zn       5.18664083       2.49874114       5.26027206
Dy       2.49569135       1.25156216       4.34162414
Zn       2.45122939       0.44354867       1.43628872
