11
Lattice="3.869569778442383 0.0 -0.6444669365882874 -0.1449372205792943 4.046561385265648 -0.7318158745765686 0.0 0.0 11.57319450378418" Properties=species:S:1:pos:R:3 pbc="T T T"
Cu       0.94075747       0.05273083       3.62015032
Dy       3.78857051       1.05267622       8.66971514
Cu       3.20679748       0.38908805       5.13990861
Cu       3.43160540       2.75387955       6.51398278
Cu       1.53859023       0.72178684       7.09597825
Dy       0.55014916       1.74814134       1.50485017
Cu       1.78044051       3.07464784       8.62597662
Cu       0.16504099       3.42305767      10.84719669
Cu       2.38628300       3.74883531       0.68468903
Dy       1.18743473       2.40006191       5.03038673
Cu       2.16454016       1.39830593      10.86560980
