11
Lattice="5.282282829284668 0.0 -2.5789811611175537 -1.3711898516804133 5.198931541155632 -2.45870304107666 0.0 0.0 6.4422712326049805" Properties=species:S:1:pos:R:3 pbc="T T T"
O        1.79389934       0.49778994       4.37034886
O        3.30588026       2.88047585       1.28473088
O        0.69928371       2.74552918       2.47323938
Sr       0.30728619       2.47813447      -1.37821265
Eu       2.20810188       0.91029936       2.03007488
Eu       3.99376454       4.00748877      -0.68007306
O       -0.78357822       4.44135706      -0.31710584
O        4.28315785       0.47474583       2.98471673
Eu       2.46320324       4.76061236      -3.91768683
O        1.88937919       4.40334144      -1.74164575
O        0.08938537       2.01995131       1.31764547
