8
Lattice="4.814712047576904 0.0 -1.0630310773849487 -3.433469172465607 3.979844439536814 -1.4707235097885132 0.0 0.0 4.779082298278809" Properties=species:S:1:pos:R:3 pbc="T T T"
Fe       1.90708712       1.29425309       2.64040991
Fe      -1.14125226       3.19517639      -0.09952646
Fe       2.89974432       1.17955762       0.09264099
Fe       0.26035139       3.25276609       1.99985393
Si       0.45328578       1.18304661       0.70700749
Fe       1.25653511       3.13062650      -0.55239630
Si      -2.11277887       3.24860553       2.44740705
Fe      -0.51478635       1.23634813       3.25167367
