8
Lattice="3.9457967281341553 0.0 -0.00010694774391595274 -0.0007388855234356516 6.930320700357454 -3.9939188957214355 0.0 0.0 8.000227928161621" Properties=species:S:1:pos:R:3:forces:R:3 sample_seed=84000 sample_index_within_seed=0 benchmark_method=GBSA-TCL dft_verified=F structure_index=0 total_energy=-59.36382293701172 stress="-0.22936411201953888 -3.083669435000047e-05 -0.001114250742830336 -3.083166666328907e-05 0.1975996196269989 0.025214511901140213 -0.001114215119741857 0.02521432749927044 0.19073040783405304" pbc="T T T"
Eu       2.31393909       2.33339803       4.40615615      -0.00304119      -0.01042612       0.01386509
Eu       2.31191863       3.57937141       0.41580883       0.00070189       0.02254402      -0.02931605
Pb       0.33940225       6.42350833       0.73754491      -0.00019419       0.00002896       0.05617608
Eu       2.31177946       6.41998518       3.49701760       0.00064040       0.01561856      -0.00092775
Pt       0.33963541       1.80242321       6.77065876       0.00042761       0.00291641      -0.00366681
Pb       0.34101670       4.72607914      -2.21115445      -0.00169137      -0.06696991      -0.00883409
Pb       0.33833864       1.19495147       1.78425535       0.00200760       0.03911934      -0.01874625
Pt       0.33903051       4.11442642       2.77547215       0.00114924      -0.00283129      -0.00855021
8
Lattice="5.8112897872924805 0.0 -0.00015543220797553658 -0.00017489893169240253 6.659198281852374 0.0013674922520294785 0.0 0.0 7.186662197113037" Properties=species:S:1:pos:R:3:forces:R:3 sample_seed=84001 sample_index_within_seed=0 benchmark_method=GBSA-TCL dft_verified=F structure_index=0 total_energy=-71.92058563232422 stress="-0.37991151213645935 -0.0036857184022665024 -0.0007658409886062145 -0.00368568510748446 0.5464407205581665 0.0038123216945677996 -0.0007658482063561678 0.0038122653495520353 -0.223974347114563" pbc="T T T"
Eu       4.10028819       4.46035630       3.81087219      -0.00521175       0.15158871       0.00506093
Eu       4.09724271       1.37825590       5.60646369      -0.00017139       0.12477373       0.04047283
Eu       1.19154185       6.00195455       5.61658966       0.00235374      -0.12365450      -0.04981185
Pb       1.19274109       2.49100384       3.81106257       0.00008809       0.10799656       0.00265202
Eu       1.19303140       5.99732092       2.01502602      -0.00004576      -0.11723167       0.04437821
Eu       4.09771142       1.37603057       2.01867572       0.00043161       0.12519653      -0.04266462
Pb       4.09767081       4.88725753       0.21831187      -0.00024896      -0.10887098       0.00148358
Eu       1.19092994       2.92026416       0.21956598       0.00280442      -0.15979837      -0.00157107
16
Lattice="5.820098876953125 0.0 -0.0020872345194220543 -0.019081629796710457 5.813653625468129 -0.007109515368938446 0.0 0.0 9.121458053588867" Properties=species:S:1:pos:R:3:forces:R:3 sample_seed=84002 sample_index_within_seed=0 benchmark_method=GBSA-TCL dft_verified=F structure_index=0 total_energy=-122.08122253417969 stress="1.1588510274887085 -0.046050406992435455 -0.03557996079325676 -0.046050261706113815 1.0309910774230957 -0.06581918895244598 -0.0355808362364769 -0.06581982225179672 0.16159820556640625" pbc="T T T"
Eu       2.32012097       1.64414917       7.86400965       0.00047438      -0.01811497      -0.00351090
Eu       5.22338076       4.54943258       7.86023150       0.01143173      -0.00089182       0.00011630
Pt       1.26694647       5.58973780       1.02015787      -0.01065208       0.01025613      -0.00481320
Pt       5.23385401       1.63891896       3.30218745       0.00529233      -0.00408153      -0.02737266
Pt       0.46240368       2.69249991       1.02437743      -0.02221254      -0.02514187       0.02004538
Pt       4.18550991       0.59177724       1.02732199       0.00900593       0.01319562      -0.01554718
Pt       5.22943049       1.64223898       7.87043066       0.00770515       0.01219455       0.01938791
Pt       2.31599306       4.54929328       7.86043218      -0.01533732       0.01662701       0.00257687
Pt       0.45102181       2.68370244       5.58490615      -0.00329736      -0.00654863       0.02136935
Eu       2.32339697       1.64066006       3.30810862      -0.00025863       0.01168773      -0.00294108
Pt       4.19294390       0.60208380       5.58850065       0.00193761      -0.00563756      -0.01891403
Pt       1.26526419       5.59109963       5.57919478       0.00948438      -0.01155335       0.01421324
Eu       5.22254445       4.54465337       3.30159827      -0.00669632       0.01517542      -0.00121192
Pt       2.31123308       4.54990558       3.30041171       0.01787120      -0.02382654      -0.00832073
Pt       3.36151260       3.50675508       5.58216822      -0.01413067       0.01085337      -0.01006360
Pt       3.35942258       3.50207948       1.01898986       0.00938191       0.00580616       0.01498623
10
Lattice="6.051039218902588 0.0 -3.475797653198242 -1.988542187761525 5.716322826407948 -3.4787704944610596 0.0 0.0 6.985586166381836" Properties=species:S:1:pos:R:3:forces:R:3 sample_seed=84003 sample_index_within_seed=0 benchmark_method=GBSA-TCL dft_verified=F structure_index=0 total_energy=-116.5792007446289 stress="0.09356887638568878 0.18526479601860046 0.10296392440795898 0.18526533246040344 0.23871377110481262 0.1275036633014679 0.10296401381492615 0.1275036334991455 0.08613711595535278" pbc="T T T"
Gd       0.88908618       2.89128752      -0.82514714       0.02819440      -0.02096001       0.00053243
Gd       1.88571653       0.03000657       4.40445480       0.01464327       0.01900065       0.02429541
Gd       3.91992155       2.89213659      -2.56738558      -0.01468279      -0.02022467       0.02924033
Gd       4.91680695       0.02862690      -0.82715131      -0.03148691       0.02158086       0.00754613
Gd       3.91794639       2.88911781       0.93227134      -0.01024041      -0.02146633      -0.03338507
Gd       1.88503465       0.02685587       0.91768281       0.01966317       0.02548466      -0.03442730
Pb       0.89349425       2.89088070       2.66855910      -0.00451883      -0.00507960      -0.00544120
C        2.90307894       1.45912023      -0.82607069      -0.00316788       0.00370209       0.00477222
Pb       4.91331944       0.03043354       2.66756527      -0.00089655      -0.00046503       0.00119619
N       -1.11765352       4.31802646      -0.82801984       0.00249259      -0.00157258       0.00567065
7
Lattice="4.4825053215026855 0.0 1.0518763065338135 2.116018674658334 3.948532977224027 1.055196762084961 0.0 0.0 10.075712203979492" Properties=species:S:1:pos:R:3:forces:R:3 sample_seed=84004 sample_index_within_seed=0 benchmark_method=GBSA-TCL dft_verified=F structure_index=0 total_energy=-31.154497146606445 stress="-0.41229477524757385 -0.013688943348824978 0.05851801484823227 -0.013688688166439533 -0.42128023505210876 0.04262951761484146 0.058517906814813614 0.042629461735486984 -0.6599986553192139" pbc="T T T"
Li       2.38474098       0.47846210       4.41944305      -0.01279448      -0.01044918       0.06572519
Li       2.28100301       3.09718073       4.86317764      -0.01348679      -0.00606973       0.05492648
Eu       3.48259746       1.13112116       9.81846583      -0.00133225       0.00052199       0.01589370
Li       1.68470694       2.73798512       7.42150661       0.00778475       0.00506454      -0.06652090
Li       1.78470227       0.11477544       6.97827144       0.01855548       0.01308333      -0.05606198
Tl       4.27420143       1.60736243       6.44839287       0.00219167      -0.00030085      -0.00644163
Eu       5.06923744       2.08427350       3.06999184      -0.00091837      -0.00185011      -0.00752082
4
Lattice="4.748823165893555 0.0 2.7426528930664062 1.5827042679433134 4.4776817736731145 2.7421557903289795 0.0 0.0 5.483243465423584" Properties=species:S:1:pos:R:3:forces:R:3 sample_seed=84005 sample_index_within_seed=0 benchmark_method=GBSA-TCL dft_verified=F structure_index=0 total_energy=-23.37778663635254 stress="-0.8831939697265625 -0.0009067836217582226 0.0038241164293140173 -0.0009069248335435987 -0.8792051672935486 0.0017159614944830537 0.0038240118883550167 0.0017160720890387893 -0.8851590752601624" pbc="T T T"
Eu       3.51759365       4.23560156       8.64394982       0.00158220       0.00116888       0.00083414
Hg       3.51938512       0.87800145       3.16206615      -0.00237441      -0.00080359      -0.00238149
Eu       5.10131042       1.99712845       5.90310772      -0.00059796      -0.00004961      -0.00092202
Hg       1.93436734       3.11658599       5.90091678       0.00139017      -0.00031568       0.00246936
10
Lattice="3.4102351665496826 0.0 -0.002357626799494028 -1.7051664009298118 5.834566586741229 -0.3485877811908722 0.0 0.0 8.208044052124023" Properties=species:S:1:pos:R:3:forces:R:3 sample_seed=84006 sample_index_within_seed=0 benchmark_method=GBSA-TCL dft_verified=F structure_index=0 total_energy=-51.944969177246094 stress="0.4670664370059967 0.007772988639771938 -0.017234880477190018 0.007772451266646385 0.4398938715457916 0.4936470687389374 -0.017235616222023964 0.4936464726924896 0.42127346992492676" pbc="T T T"
Sc       0.42517515       2.70933759       7.90746544       0.00043602      -0.13939615      -0.32582864
Zn       2.13111685       2.79694608       5.38272400      -0.00466625      -0.05235433       0.27494290
Sc       2.13199234       3.62093333       2.36918720      -0.00604430       0.07452537       0.11869495
Zn      -1.27915471       4.89395976       7.16628081      -0.00445084      -0.09954601       0.02184822
C        0.42584228       5.25928510       2.87722797      -0.00135525       0.17840764      -0.05311395
Sc       2.12753124       0.52439587       1.35224782       0.01802263       0.04196940      -0.26546413
Zn       0.42401175       4.48332208       4.73863447       0.00972022       0.10128885       0.19076420
Zn       2.13044171       0.70600690       6.61975683      -0.00035505       0.09953390      -0.11417430
C        0.42614356       2.01637080       1.80264351      -0.00797694      -0.00502883      -0.05145513
Sc       0.42590170       0.86892721       3.87621818      -0.00333034      -0.19939998       0.20378594
10
Lattice="3.7645044326782227 0.0 -0.0008344166562892497 0.002251858063385477 3.766062778535455 0.00041017544572241604 0.0 0.0 19.364418029785156" Properties=species:S:1:pos:R:3:forces:R:3 sample_seed=84007 sample_index_within_seed=0 benchmark_method=GBSA-TCL dft_verified=F structure_index=0 total_energy=-72.62126159667969 stress="-0.3907544016838074 0.011237823404371738 -0.0042043752036988735 0.011237656697630882 -0.38248854875564575 0.002777027664706111 -0.004204343538731337 0.002777347806841135 -0.1563325971364975" pbc="T T T"
Eu       3.16823494       3.16226610       6.45486488      -0.00075345      -0.00044877      -0.01637423
Mg       1.28353663       1.27789337       4.19804172       0.00152477       0.00142846       0.00688593
Eu       3.16742863       3.16133206       1.94872077       0.00016385      -0.00062106       0.01540810
Eu       3.16831316       3.16286837      13.90525106      -0.00156637      -0.00033625      -0.04291423
Au       1.28410445       1.27961700      15.75225355       0.00014651      -0.00057193       0.03236453
Au       1.28448675       1.27804275       0.21484117      -0.00156206       0.00091242      -0.03291582
Eu       3.16664940       3.16179089      17.63362422       0.00150964       0.00017131       0.02037539
Eu       3.16735728       3.16208540      10.14649140       0.00067296       0.00089947      -0.00496870
Au       1.28511255       1.27973069       8.18690912      -0.00094676      -0.00119341       0.04734142
Au       1.28399495       1.27961756      12.03945095       0.00081091      -0.00024018      -0.02520238
