8
Lattice="4.014268894899895 5.395711896331756e-05 3.931375294697724e-06 -0.0007686103470959033 6.885903498110196 -3.973282165754922 0.000223404501334381 -0.006081125339643651 7.948338327313899" Properties=species:S:1:pos:R:3:forces:R:3 sample_seed=84000 sample_index_within_seed=0 benchmark_method=GBSA-TCL dft_verified=F structure_index=0 total_energy=-59.371063232421875 stress="0.025791866704821587 -6.634761120949406e-06 0.0002804934629239142 -6.693108844046947e-06 0.00868680514395237 -0.007121806498616934 0.0002804627292789519 -0.00712171895429492 0.010385734960436821" pbc="T T T"
Eu       2.35336215       2.30739472       4.37583380      -0.00086806      -0.02441688      -0.01564550
Eu       2.35236626       3.56401317       0.40207915       0.00050195       0.02552101      -0.01244179
Pb       0.34534736       6.37849272       0.74831100      -0.00013339      -0.00099868       0.02127823
Eu       2.35229345       6.37641743       3.47479569       0.00035995      -0.00121438       0.03075891
Pt       0.34584972       1.78566223       6.72437409       0.00003648      -0.00041393       0.00059655
Pb       0.34631516       4.67416160      -2.20689874      -0.00122196      -0.01740726      -0.01484823
Pb       0.34492414       1.20159747       1.76411008       0.00102138       0.02006747      -0.00827498
Pt       0.34537360       4.08322288       2.75225191       0.00030366      -0.00113730      -0.00142316
8
Lattice="5.955811839639307 0.00015337096166929617 -0.00014597008120543047 -3.5266856743917214e-06 6.383184583391637 0.00027345807340161304 1.566932678629275e-05 -0.0012111539950215677 7.3350091212431066" Properties=species:S:1:pos:R:3:forces:R:3 sample_seed=84001 sample_index_within_seed=0 benchmark_method=GBSA-TCL dft_verified=F structure_index=0 total_energy=-72.01481628417969 stress="0.00949830748140812 -8.060836262302473e-05 2.4454278900520876e-05 -8.055331272771582e-05 0.023070374503731728 0.0001019421688397415 2.4450415367027745e-05 0.00010174484486924484 0.002566366922110319" pbc="T T T"
Eu       4.19992449       4.47153733       3.89159186       0.00053964      -0.01644315      -0.00152423
Eu       4.19989012       1.43460093       5.73644005       0.00022875      -0.00677406      -0.02456246
Eu       1.22242392       5.63585291       5.71204486      -0.00077234       0.00622573       0.02677772
Pb       1.22212712       2.47716522       3.89155333      -0.00010015      -0.04483400      -0.00103616
Eu       1.22217638       5.63760058       2.07017070      -0.00027253       0.00422583      -0.02567022
Eu       4.20001183       1.43494756       2.04370888      -0.00015641      -0.00604054       0.02642579
Pb       4.19988402       4.59458391       0.22377116       0.00017479       0.04501564      -0.00029194
Eu       1.22180991       2.59953911       0.22365940       0.00035827       0.01862454      -0.00011845
16
Lattice="5.778094676206218 0.006915629145359077 -0.00019434917777869258 -0.012036928521983572 5.777747926861909 -0.0034039360509321983 0.002985616624662553 0.0058886127703520665 9.17449939567466" Properties=species:S:1:pos:R:3:forces:R:3 sample_seed=84002 sample_index_within_seed=0 benchmark_method=GBSA-TCL dft_verified=F structure_index=0 total_energy=-122.09532928466797 stress="0.013714456930756569 -0.0023981097619980574 -0.0010882832575589418 -0.0023978836834430695 0.007508727256208658 -0.0026452294550836086 -0.001087681157514453 -0.002644820138812065 -0.020126638934016228" pbc="T T T"
Eu       2.30792768       1.64138762       7.91144620       0.00164283      -0.01254355      -0.00389496
Eu       5.19395188       4.53262407       7.91057527       0.00784158      -0.00016746      -0.00068720
Pt       1.26452344       5.55769982       1.02992875      -0.00422564       0.00580545      -0.00497067
Pt       5.19923877       1.63705364       3.32352177       0.00398501      -0.00268769      -0.01620731
Pt       0.46176622       2.67623758       1.03246896      -0.03400190      -0.03415690       0.00612535
Pt       4.15682055       0.59428496       1.03490464       0.02223068       0.02341880      -0.00375702
Pt       5.19640961       1.64370365       7.91941949       0.00537984       0.00904999       0.01130623
Pt       2.30687498       4.52944318       7.90994880      -0.01060016       0.01059525       0.00591420
Pt       0.45251580       2.67096561       5.61952823      -0.01721066      -0.01848616       0.00595543
Eu       2.30966303       1.63571654       3.32910864       0.00019088       0.00740536      -0.00117696
Pt       4.16547394       0.60694875       5.62254135       0.01672320       0.00785987      -0.00521876
Pt       1.26491905       5.56138164       5.61592173       0.01488872      -0.01468241       0.00573232
Eu       5.19118290       4.52534005       3.32542715      -0.00338330       0.01228271       0.00024568
Pt       2.30147186       4.52611503       3.32304815       0.01189536      -0.01681533      -0.00874669
Pt       3.34280075       3.49301546       5.61783781      -0.01913239       0.01398422      -0.00302316
Pt       3.33991297       3.48527183       1.02872342       0.00377610       0.00913803       0.01240344
10
Lattice="6.054827797930986 -0.009268625477834348 -3.4843923905524488 -1.9977392461510133 5.714995156981441 -3.485973064233136 -0.009705449329281331 -0.011948506750862615 6.985963410389545" Properties=species:S:1:pos:R:3:forces:R:3 sample_seed=84003 sample_index_within_seed=0 benchmark_method=GBSA-TCL dft_verified=F structure_index=0 total_energy=-116.58102416992188 stress="0.018991459161043167 -0.002657915698364377 -0.0014092398341745138 -0.0026587601751089096 0.016957595944404602 -0.0018072056118398905 -0.0014094713842496276 -0.0018070298247039318 0.018483929336071014" pbc="T T T"
Gd       0.88337326       2.88383581      -0.83136286       0.02155402      -0.01606270       0.00024405
Gd       1.87943695       0.01797111       4.40241791       0.00754069       0.00914538       0.01209046
Gd       3.91526080       2.88007241      -2.57734523      -0.01062099      -0.01454461       0.02174170
Gd       4.91640732       0.01804753      -0.83391871      -0.02442594       0.01636271       0.00671428
Gd       3.90856592       2.87111289       0.92134826      -0.00341053      -0.01095339      -0.02021419
Gd       1.88375036       0.02098358       0.91438822       0.01455363       0.01880393      -0.02614600
Pb       0.88228468       2.87773610       2.66239568      -0.00295419      -0.00611821      -0.00553541
C        2.89999529       1.45017817      -0.83254491      -0.00254664       0.00337828       0.00414478
Pb       4.90865846       0.01346041       2.66086381      -0.00199966       0.00096808       0.00169861
N       -1.12711435       4.31294941      -0.83377639       0.00230950      -0.00097941       0.00526179
7
Lattice="4.485550842602788 0.00043666650122752893 1.052648163972848 2.1181900751788043 3.953619158442305 1.0544834830511562 -0.11360296740586687 -0.07228905942567584 10.567217636835144" Properties=species:S:1:pos:R:3:forces:R:3 sample_seed=84004 sample_index_within_seed=0 benchmark_method=GBSA-TCL dft_verified=F structure_index=0 total_energy=-31.19542694091797 stress="0.03729354590177536 -0.0003652125597000122 0.002510444028303027 -0.0003651138104032725 0.0378158763051033 0.0014004121767356992 0.0025105266831815243 0.0014003566466271877 0.027328774333000183" pbc="T T T"
Li       2.32108476       0.43711271       4.70706043      -0.00322006      -0.00201143       0.01339188
Li       2.22456924       3.06494112       5.11529765       0.00283704       0.00066187      -0.00944401
Eu       3.40168959       1.08014160      10.18722090       0.00344031       0.00242620      -0.01495176
Li       1.63188610       2.70643877       7.64190785       0.00466806       0.00352516      -0.01317244
Li       1.72938338       0.07985735       7.23381380      -0.00396306      -0.00244865       0.00912728
Tl       4.21971165       1.57223352       6.70019909      -0.00040733       0.00016507       0.00143600
Eu       5.03756503       2.06444872       3.21522219      -0.00335492      -0.00231822       0.01361308
4
Lattice="4.790446080560182 2.1679973382507253e-05 2.7665115688023922 1.5965060299682277 4.516704302738618 2.766167548966107 -0.0005146658320053202 -0.0001710590318395481 5.531834005329537" Properties=species:S:1:pos:R:3:forces:R:3 sample_seed=84005 sample_index_within_seed=0 benchmark_method=GBSA-TCL dft_verified=F structure_index=0 total_energy=-23.38669204711914 stress="-0.06620483845472336 -9.478272113483399e-05 0.0003654784522950649 -9.462578600505367e-05 -0.06595184653997421 -0.00011392437590984628 0.00036550898221321404 -0.00011393309978302568 -0.06624559313058853" pbc="T T T"
Eu       3.54798800       4.27243611       8.72013382       0.00116415       0.00085826       0.00061939
Hg       3.55001176       0.88559904       3.18959384      -0.00186036      -0.00060408      -0.00190371
Eu       5.14575645       2.01448315       5.95482631      -0.00044676      -0.00004249      -0.00068050
Hg       1.95102337       3.14362416       5.95307029       0.00114298      -0.00021170       0.00196482
10
Lattice="3.3946036878470847 4.4766679885790073e-05 -0.001120486607007419 -1.697412884890335 5.869880398911917 -0.36678465536492677 0.002913900930118501 -0.03025723508752807 8.115826838229948" Properties=species:S:1:pos:R:3:forces:R:3 sample_seed=84006 sample_index_within_seed=0 benchmark_method=GBSA-TCL dft_verified=F structure_index=0 total_energy=-51.98927688598633 stress="-0.021715668961405754 5.7078661484410986e-05 0.00012723229883704334 5.692320701200515e-05 -0.015657911077141762 -0.0019108729902654886 0.00012739564408548176 -0.0019120542565360665 -0.019973458722233772" pbc="T T T"
Sc       0.42619008       2.66584167       7.75105833       0.00007493       0.00759958      -0.00602666
Zn       2.12255903       2.79953643       5.36176829       0.00101071       0.00367462      -0.03443036
Sc       2.12172877       3.64077349       2.34777976      -0.00022808       0.00398376      -0.02002593
Zn      -1.27145946       4.87767719       7.06073886       0.00068304       0.01115126      -0.00214748
C        0.42454129       5.30289833       2.82772803      -0.00023592      -0.02929039       0.02223532
Sc       2.12149584       0.54189558       1.30062294      -0.00222811       0.01564548       0.04525495
Zn       0.42537518       4.50446208       4.70987909      -0.00143847      -0.01890802       0.00599144
Zn       2.12306331       0.69020414       6.51811477      -0.00020079      -0.02147434       0.00090237
C        0.42378777       2.02732741       1.75296287       0.00168648       0.02343217      -0.00700803
Sc       0.42472567       0.82911727       3.86691036       0.00087615       0.00418557      -0.00474556
10
Lattice="3.7895551497863673 -0.0011198530502198913 -0.00043873625658420257 0.0011465107897714363 3.7897802802356892 0.00014558460548553073 0.0020190831138430267 -0.0013536880293726554 19.29098549028422" Properties=species:S:1:pos:R:3:forces:R:3 sample_seed=84007 sample_index_within_seed=0 benchmark_method=GBSA-TCL dft_verified=F structure_index=0 total_energy=-72.62559509277344 stress="-0.017818519845604897 0.00012512393004726619 -1.8292483218829148e-05 0.00012518912262748927 -0.01660699024796486 6.115088126534829e-06 -1.7954253053176217e-05 6.335907983157085e-06 0.025025779381394386" pbc="T T T"
Eu       3.18901673       3.18076586       6.43017390      -0.00067888      -0.00046699      -0.00853144
Mg       1.29220463       1.28533069       4.18246683       0.00140924       0.00131203       0.00615368
Eu       3.18777428       3.18013775       1.94176762       0.00008806      -0.00046148       0.00987086
Eu       3.18983751       3.18085761      13.85081352      -0.00134354      -0.00033989      -0.03515149
Au       1.29391622       1.28616795      15.69389991       0.00007137      -0.00049578       0.02582461
Au       1.29261335       1.28573118       0.21291345      -0.00119722       0.00069499      -0.02086283
Eu       3.18868486       3.17953723      17.56762063       0.00129479       0.00018674       0.01343794
Eu       3.18858288       3.18038662      10.10798889       0.00065413       0.00075681      -0.00263787
Au       1.29408982       1.28678624       8.15769728      -0.00103084      -0.00096315       0.03388594
Au       1.29345018       1.28644191      11.99276113       0.00073295      -0.00022326      -0.02198940
