16
Lattice="6.457253932952881 0.0 -1.6864546537399292 4.578991701255973 8.224655904799103 0.06533307582139969 0.0 0.0 8.574614524841309" Properties=species:S:1:pos:R:3 pbc="T T T"
Pu       6.03811932       1.85899305      -1.17679942
Bi       8.33050999       5.90491905       3.13395740
Pu       5.10772699       5.94205184       3.99481882
Sn       5.55995919       3.91468114       1.45760478
Pu       6.49102553       6.96705372       0.53544640
Sn       4.24193133       2.85560058       4.82214093
Ce       4.71068457       0.80832204       2.25259135
Ce       2.38975764       3.95588012       2.25856105
Bi       2.81213759       1.84325931      -0.33004637
Sn       6.96337560       4.93883076       6.58229255
Pu       7.89723491       7.98965840       5.70992423
Bi       1.42710445       0.81657539       3.13390137
Pu       3.77967028       4.99048115       7.43321011
Sn       4.63926050       7.99369542       6.61691384
Sn       9.72969425       6.96677233      -0.32414626
Pu       7.41978950       2.86887742       4.03391941
