8
Lattice="4.796708106994629 0.0 -0.0026522751431912184 -0.00042101547152394083 5.09886739900013 -2.955225944519043 0.0 0.0 5.88979959487915" Properties=species:S:1:pos:R:3 pbc="T T T"
Gd       1.56911877       5.02076459       2.69486939
Pt       1.57001586       4.94730744      -0.24908031
Pt       3.96797339       1.69565246      -0.24588959
Gd       3.96790985       1.62368374       2.69767725
Pt       3.96823505       4.13602873       1.15871984
Pt       1.56956579       2.50681325       4.23563644
Pt       3.96752290       4.13548593      -1.65988492
Pt       1.57015539       2.50783122       1.16416461
