16
Lattice="3.2433059215545654 0.0 0.5530439615249634 1.856751083864011 6.455995094999218 -0.9979274868965149 0.0 0.0 9.944918632507324" Properties=species:S:1:pos:R:3 pbc="T T T"
Li       2.87438375       3.59932064       3.31429671
Li       1.58267523       0.99797144       1.03401863
Mn       2.12486371       5.50282300       7.84979395
O        3.71182197       4.28015721       8.34140156
B        1.05228586       1.66750679       4.20904764
Mn       4.78083258       5.79504094       1.95824187
O        1.77653878       2.53588943      -0.06097287
Li       2.32981000       0.26188143       6.49039411
O        3.15554934       4.48754147       1.68181096
Mn       4.03727305       3.66726332       6.35804299
O        0.00878941       0.01751515       0.47943527
Mn       3.41168250       3.33741139       0.13871162
O        1.21715461       0.67991835       3.24264674
O        1.12052331       3.01720807       3.81854381
O        0.82250754       1.42817508       5.55664827
O        2.43444103       5.12904749       5.98310364
