8
Lattice="4.563108444213867 0.0 -0.000776981352828443 0.0012547007038330466 4.710029911768637 0.003297362709417939 0.0 0.0 4.594222068786621" Properties=species:S:1:pos:R:3 pbc="T T T"
Eu       1.75696890       3.77109711       3.46604403
Fe       4.03941434       1.41668170       3.46462014
Na       4.03997671       3.77073046       1.16971356
O        1.75824240       3.77347125       1.16912903
O        1.75447709       1.41715554       3.46557937
Fe       1.75624256       1.41360333       1.16686928
O        4.04042317       1.41715600       1.16623746
O        4.04284183       3.76993837       3.46657740
