5
Lattice="3.3282740285764025 0.006859681091030578 -0.44401532634130264 0.055269246267610844 3.3272746653877867 0.4480816353110446 0.02536595127004479 -0.04090922575168986 12.879161070753119" Properties=species:S:1:pos:R:3:forces:R:3 structure_index=0 total_energy=-23.663036346435547 stress="-0.006172728259116411 0.001527123269625008 -0.0025615659542381763 0.0015270642470568419 -0.006249372847378254 0.0026599217671900988 -0.0025615240447223186 0.0026599292177706957 -0.026015248149633408" pbc="T T T"
Ce       1.98148390       3.02653214       8.03057024      -0.00618254       0.00880998      -0.04648151
Mg       3.28654368       1.70665050       5.11101504       0.00526947      -0.00569907       0.03678112
Ce       0.58660253       1.05950697      10.24095257       0.00329210      -0.00436171       0.02995882
Ce       1.26732383       0.37562096       2.66029801       0.00127218      -0.00056229       0.00535391
Sm       2.60437542       2.40947812      -0.00272450      -0.00365122       0.00181311      -0.02561234
