3
Lattice="2.7434871637171163 0.06901666516201169 0.7319352223323137 0.33106330967691194 3.4097503436391006 -1.5603938116065015 0.205794488848693 0.09620564980356976 4.79696294613735" Properties=species:S:1:pos:R:3:forces:R:3 structure_index=0 total_energy=-22.346240997314453 stress="-0.012552700936794281 0.0688958689570427 0.14217425882816315 0.06889551877975464 -0.02833264134824276 0.045720018446445465 0.14217384159564972 0.045719925314188004 0.079170823097229" pbc="T T T"
Pt       1.38272054       1.82157629       2.35771264      -0.00718579      -0.01642583      -0.01039973
Cr       2.26715621       0.71415286       4.67283193      -0.00435380       0.00091740       0.00131443
Pt       0.52999670       2.85170250      -0.10094691       0.01153959       0.01550842       0.00908529
