8
Lattice="3.463754892349243 0.0 0.00046685177949257195 -1.731947777314374 2.9994091421949305 0.0027381088584661484 0.0 0.0 11.941197395324707" Properties=species:S:1:pos:R:3 pbc="T T T"
C        0.44211467       0.24869539       4.64698736
Gd       0.44232091       2.24624200       6.32780170
Gd       0.44255306       2.24856024       3.16962777
Gd       0.44130296       0.24489167       9.21703660
C        0.44071579       2.24509105      10.70164341
N        2.17003848       1.24644894       1.40876147
Mn       0.44204805       2.24613331       0.46164294
N        2.17422048       1.24692438       7.74009694
