12
Lattice="4.78872005614563 -0.01753202518591911 -1.0543577687126373 -2.372149059931418 10.626055468156482 0.46927440428025646 -0.12064460290360932 -0.06936045579608564 10.866900199927318" Properties=species:S:1:pos:R:3:forces:R:3 structure_index=0 total_energy=-40.93911361694336 stress="-0.010057815350592136 -0.0006851059151813388 0.0028818342834711075 -0.0006850994541309774 0.003052737796679139 -0.0002943176659755409 0.002881895052269101 -0.0002946338790934533 -0.00026001871447078884" pbc="T T T"
Ba       0.28634553       0.17912958       6.79603287      -0.00260380      -0.00627702      -0.00331113
I        4.29867692       1.93991391       2.17596673      -0.00105312      -0.00253232       0.00494923
Ba      -0.84494692       5.55843501       1.60227014       0.00772039      -0.02037321      -0.01505332
I        2.68004536       2.78767116       6.22008788      -0.00672386       0.00621460      -0.02140336
I        2.11506392       5.50789929       3.63643043       0.00581335      -0.01761419       0.01926055
I        3.24773829       0.12866142       8.82955063      -0.01022241       0.01805973      -0.02253660
Ba       0.29018751       5.41411663       6.73350257      -0.00593180      -0.00176355      -0.02819282
I       -0.07290398       9.07925490       5.05067616       0.00488668       0.00684927      -0.00980945
I        1.55209728       8.17359417       1.02023600       0.00181329      -0.01533479       0.02168429
Ba       1.53284775       0.18995490       1.04626669       0.00482193      -0.01137883       0.01445974
I        1.05101155       3.74480349      10.23177652      -0.00112420       0.00374515       0.00906133
I        3.05796367       7.13954848       7.86623884       0.00260357       0.04040508       0.03089158
