4
Lattice="2.5934368958255143 -0.0292601997143389 -0.774835577687242 -1.3914152875246042 2.327876540521565 0.0017776917466326265 -0.05724826914738522 -0.030660791880132716 4.567306536392848" Properties=species:S:1:pos:R:3:forces:R:3 structure_index=0 total_energy=-15.34761905670166 stress="0.08023566007614136 -0.13982951641082764 -0.20172904431819916 -0.1398279070854187 0.20648522675037384 -0.03668578714132309 -0.201727956533432 -0.036685723811388016 -0.2085394412279129" pbc="T T T"
Li       1.31302211       0.33137525       1.93800522      -0.01125776       0.00069593       0.00823140
H       -0.99644470       2.11488372       3.65756182       0.01586687       0.01108454       0.03994763
H       -0.38059327       0.90486649       1.00503592      -0.00537924      -0.01014438      -0.04703231
Ni       0.63885378       1.51122699      -0.34133743       0.00077016      -0.00163610      -0.00114672
