16
Lattice="3.2433059215545654 0.0 0.5530439615249634 1.856751083864011 6.455995094999218 -0.9979274868965149 0.0 0.0 9.944918632507324" Properties=species:S:1:pos:R:3 pbc="T T T"
Li       2.87438375       3.59932062       3.31429671
Li       1.58267521       0.99797142       1.03401864
Mn       2.12486365       5.50282298       7.84979392
O        3.71182190       4.28015720       8.34140164
B        1.05228602       1.66750688       4.20904771
Mn       4.78083257       5.79504099       1.95824185
O        1.77653885       2.53588943      -0.06097282
Li       2.32980981       0.26188139       6.49039416
O        3.15554932       4.48754141       1.68181097
Mn       4.03727309       3.66726327       6.35804297
O        0.00878942       0.01751514       0.47943527
Mn       3.41168248       3.33741142       0.13871156
O        1.21715460       0.67991835       3.24264672
O        1.12052331       3.01720815       3.81854374
O        0.82250756       1.42817503       5.55664821
O        2.43444114       5.12904753       5.98310364
