14
Lattice="5.294562816619873 0.0 -0.0018533205147832632 2.0136023715012636 4.898729646972173 -0.00803269725292921 0.0 0.0 6.846227645874023" Properties=species:S:1:pos:R:3 sample_seed=70000 sample_index_within_seed=0 benchmark_method=C0 dft_verified=F pbc="T T T"
Li       2.39546186       1.88085949       6.45979289
Li       4.70260838       3.42877841       3.03657833
O        2.63689931       3.62195938       3.04365598
Si       4.59299240       3.35525783       6.46232175
O        4.46299451       1.68911729       6.46223653
Eu       5.18893949       0.20521709       4.75333812
Eu       5.19182760       0.20824490       1.33192631
O        3.00172485       3.86864696       6.46681908
Si       2.50640047       1.95752988       3.04061947
O        1.78146320       1.47262029       1.64960351
O        5.31925481       3.84397201       5.06883407
O        5.32137757       3.84272406       1.00990754
O        1.77821253       1.46758935       4.43009694
O        4.09820648       1.44422499       3.03925620
20
Lattice="6.157137393951416 0.0 -1.8282302618026733 -1.8769202220337606 5.089954534731008 -3.3931515216827393 0.0 0.0 6.717849254608154" Properties=species:S:1:pos:R:3 sample_seed=70001 sample_index_within_seed=0 benchmark_method=C0 dft_verified=F pbc="T T T"
Co       1.52672404       4.68118733       0.93055899
Co       0.84966953       2.72490122      -0.27723271
Fe       2.86095766       4.31205494      -1.32767040
Fe       0.83482500       0.19497560       0.78445533
Co       1.31451493       2.34571450       1.94674443
Fe       4.82893834       3.34955805      -2.71386990
Co       4.80113679       1.39719607      -1.39533547
B        4.62770401       3.18456489       1.85070195
Co       3.10193139       0.31057045       0.16307299
Fe       3.54001996       1.43402382       2.62728144
Fe       0.54519942       3.14937921       3.97904905
Fe       5.33232993       1.34513370       0.86157834
Fe       2.89951856       3.93406917      -3.87490468
Co       1.24789922       0.41254457       3.35501598
Fe       3.19671912       2.62814539       0.42146521
Fe      -0.15335681       1.09271152       5.08207304
B        0.71193793       4.61237508      -1.24623379
Fe       2.49583367       1.86076688      -1.89731941
Co      -0.72144795       3.84965383       1.80128356
B        3.61743533       4.56381953       0.94442056
6
Lattice="4.086044788360596 0.0 0.011855247430503368 0.00564479434678685 3.731806538978006 1.7730422019958496 0.0 0.0 4.821353435516357" Properties=species:S:1:pos:R:3 sample_seed=70002 sample_index_within_seed=0 benchmark_method=C0 dft_verified=F pbc="T T T"
Co       2.67864015       1.55801295       1.81246486
Fe       0.63553074       2.13840817       5.39920824
Fe       0.63407821       0.91637153       3.15843039
Co       0.63941973       3.42542176       2.68637255
Co       2.67747904       0.27676849       4.51109317
Rh       2.68145656       2.78042210       4.05768428
14
Lattice="5.7110595703125 0.0 3.2526702880859375 1.1741897505571048 5.445840834895485 3.4651551246643066 0.0 0.0 6.93179988861084" Properties=species:S:1:pos:R:3 sample_seed=70003 sample_index_within_seed=0 benchmark_method=C0 dft_verified=F pbc="T T T"
Mn       0.91263649       0.35298086       2.43547050
Mn       4.03929608       1.20031886       4.70519623
Sb       5.36219703       4.83297626      10.11765198
Li       3.22811416       4.46993970       8.26704924
As       2.13338409       3.39306800       6.27218436
Mn       3.24804397       3.62724847       4.18434443
Sb       5.20289979       2.68098438       6.73852464
Mn       4.62826651       2.27442515       9.28159395
Mn       6.19683212       2.59253840      11.26417801
Ni       1.43860216       1.62100749       4.92549092
Sb       0.32366481       0.12260900       6.76659261
Ni       4.71206771       5.12652755       5.86216361
Mn       2.44802729       1.90733551       2.83656505
Mn       2.76311051       1.43009503       7.48740157
9
Lattice="4.797260284423828 0.0 0.00118071842007339 -0.002268351969219318 6.576232518942855 -4.011516094207764 0.0 0.0 7.397914886474609" Properties=species:S:1:pos:R:3 sample_seed=70004 sample_index_within_seed=0 benchmark_method=C0 dft_verified=F pbc="T T T"
Eu       3.28963368       5.91831239      -0.93012036
Ge       0.89138609       5.08715777       0.96406500
Sn       3.28981873       2.70509021       5.04412428
Eu       3.29014332       0.06633583       6.65093472
Eu       3.29077746       2.91404508       1.53125540
Zn       0.89384614       1.10609498       4.10523777
Eu       0.89114141       4.38374200       4.00434313
Ge       0.89279307       0.83489159       1.39928431
Zn       0.89117393       2.80810960      -0.50772095
20
Lattice="5.183450222015381 0.0 0.6098698377609253 2.1593106080305513 4.8093342368000265 1.3029296398162842 0.0 0.0 9.647215843200684" Properties=species:S:1:pos:R:3 sample_seed=70005 sample_index_within_seed=0 benchmark_method=C0 dft_verified=F pbc="T T T"
Fe       4.36129785       2.75074782       3.89678696
Li       4.16261276       1.30770341       0.81842592
Fe       1.48925915       0.41615925       1.12842866
Ti       2.01630934       1.03760717       8.04538530
Fe       6.39387687       4.71646027       4.70968027
Li       1.88823104       2.18138052       5.30520383
Fe       4.39621311       1.51811674       6.53278215
Li       4.61669272       4.34259976       6.88458930
O        5.36628297       4.43684396       3.04665399
O        5.64016637       4.64034552       8.90091033
O        0.43124705       0.14872605       9.01013492
Ti       2.17154959       3.87742786       8.62026717
O        0.98773932       0.64108529       6.38161858
Fe       1.56010113       3.20234472       1.58445354
O        2.78527727       2.70649375       7.13891360
O        2.66494855       3.53487679       3.38179660
O        3.50321511       1.11781734       4.74072714
O        2.50315774       2.12851923       9.76251399
O        5.39250140       3.16104322       5.53672480
O        5.22957197       1.60330237       2.56024891
18
Lattice="5.851555824279785 0.0 -0.6459850668907166 -1.3374312965127761 5.967325430167568 -2.255990982055664 0.0 0.0 8.401201248168945" Properties=species:S:1:pos:R:3 sample_seed=70006 sample_index_within_seed=0 benchmark_method=C0 dft_verified=F pbc="T T T"
Eu       4.88699896       1.80880707       6.99591063
Eu      -0.73392346       5.28118538       2.84080114
O        0.45595482       5.09412066       0.93108671
Eu       1.91929151       3.30117817       1.24351851
O        0.59060165       1.50248629       5.74892059
W        5.05050223       2.44635923       3.85566859
O        3.72055248       3.49642248       2.83812290
Li       2.25045136       0.80822936      -0.50506362
Li       3.03559459       0.57480055       3.38496082
O        2.61334972       5.88650526       5.64923994
O       -0.57500668       3.87464901       5.87914094
O        3.58865981       1.68304918       4.94277019
Eu       4.49443922       5.44975331      -1.30050501
O        0.88093272       1.39409432       0.58385050
Eu       2.12975450       3.58223142       5.44088147
O        0.64245550       3.29264932       3.43701136
O        4.94931765       0.76467710       2.85877913
O        3.24083170       3.34264161      -0.76365007
6
Lattice="3.524643898010254 0.0 0.0003544696664903313 -1.7652758252761063 3.8446603873088634 -1.2919670343399048 0.0 0.0 5.113903999328613" Properties=species:S:1:pos:R:3 sample_seed=70007 sample_index_within_seed=0 benchmark_method=C0 dft_verified=F pbc="T T T"
Fe      -0.86292754       3.01584757       2.81575899
Fe       2.66391918       0.46421792       0.24531815
Fe       0.90076613       1.75197603       1.49242592
Fe       2.66377342       0.46203027       2.80166804
Ni      -0.86230444       3.02728195       0.23011501
Ni       0.90033009       1.74528984       4.07534201
4
Lattice="5.018289089202881 0.0 2.8845438957214355 1.6759894722021895 4.731510211074041 2.8821890354156494 0.0 0.0 5.790928840637207" Properties=species:S:1:pos:R:3 sample_seed=70008 sample_index_within_seed=0 benchmark_method=C0 dft_verified=F pbc="T T T"
Eu       4.45290264       4.28667896       4.34876359
Eu       2.78336003       3.10134642       7.25928470
Eu       1.10566243       1.92398814       4.36074077
Mg       4.45779660       0.74173019       4.36410738
4
Lattice="3.4661734104156494 0.0 0.00027917171246372163 0.001499279023601257 3.4624439808171994 0.0013730863574892282 0.0 0.0 3.471196174621582" Properties=species:S:1:pos:R:3 sample_seed=70009 sample_index_within_seed=0 benchmark_method=C0 dft_verified=F pbc="T T T"
Co       0.97934020       2.55749842       2.18891404
Co       2.71170950       0.82627287       2.18866543
Si       0.97741394       0.82643132       0.45229089
Co       2.71213515       2.55740101       0.45352665
4
Lattice="2.9683845043182373 0.0 -0.0028656809590756893 -0.0031396032746341825 2.969105014248676 -0.005838816054165363 0.0 0.0 5.882026672363281" Properties=species:S:1:pos:R:3 sample_seed=70010 sample_index_within_seed=0 benchmark_method=C0 dft_verified=F pbc="T T T"
Fe       0.92212833       2.20456580       3.05527990
Zn       2.40896211       0.71978518       4.50346813
Fe       2.40909342       0.71958887       1.73591090
Ir       0.92073119       2.20232339       0.22267735
11
Lattice="6.299326419830322 0.0 -0.8924787640571594 -1.6404996289909377 5.2305409371882465 -3.1635828018188477 0.0 0.0 6.37679386138916" Properties=species:S:1:pos:R:3 sample_seed=70011 sample_index_within_seed=0 benchmark_method=C0 dft_verified=F pbc="T T T"
K        3.14221546       0.20474536       3.92806463
O        0.00629465       4.76340855      -1.54564268
O        4.82617841       0.52041385      -0.17803934
O        0.98393070       1.55425314       4.82980686
K        2.69636119       1.86547474       0.76745915
Eu      -0.26760235       0.95101753       2.80725070
Eu       5.42103534       2.74694422      -1.42765833
Eu      -1.42419841       4.58317279       2.84606268
Eu       2.11015092       3.66565413      -2.26207862
O        3.64747612       4.14269752      -0.42184037
O        4.17743078       2.51478112       2.97874912
10
Lattice="3.44463849067688 0.0 -0.0009261278319172561 -1.7190395720052154 2.9867824911173715 -0.002531172474846244 0.0 0.0 13.725454330444336" Properties=species:S:1:pos:R:3 sample_seed=70012 sample_index_within_seed=0 benchmark_method=C0 dft_verified=F pbc="T T T"
Mn       0.18620759       1.73717860       1.25318430
O        1.90573601       0.74161703       1.81156868
Mn       1.90718041       0.74287487       8.86456605
F        1.90870901       0.74326866       6.78396671
Li       0.18617026       1.74002043       6.41233544
O        0.18445773       1.74237002       4.41070343
O        0.18763539       1.73776964       8.65900621
F        0.18560270       1.73641291      13.12705026
F        1.90983085       0.74111401      10.66018061
Mn       1.90397611       0.74421069       4.00524298
3
Lattice="2.7857658863067627 0.0 0.004879269283264875 -1.3830285325137484 2.4174021970876813 0.0029500839300453663 0.0 0.0 4.310626983642578" Properties=species:S:1:pos:R:3 sample_seed=70013 sample_index_within_seed=0 benchmark_method=C0 dft_verified=F pbc="T T T"
Zn      -0.71573047       2.15571274       4.11014090
Fe       0.67472216       1.35177151       2.04234605
H        2.06144084       0.54356830       1.54128186
8
Lattice="4.518385410308838 0.0 0.003832180518656969 0.00202288761896107 4.517852807162081 -0.0008888381416909397 0.0 0.0 4.514898777008057" Properties=species:S:1:pos:R:3 sample_seed=70014 sample_index_within_seed=0 benchmark_method=C0 dft_verified=F pbc="T T T"
Fe       3.45434059       1.59957922       2.31619617
Fe       2.32530704       3.85678961       1.19050321
Fe       3.45539062       1.59708605       0.06334766
Fe       1.19568195       2.72497313       3.44626431
Si       3.45614674       3.85779243       3.44782524
Fe       1.19672984       0.47598448       3.44756940
Fe       0.06953714       3.85699884       1.18832868
Ni       1.19600150       1.59930294       1.18955485
12
Lattice="5.101917266845703 0.0 -1.23102867603302 -1.5313267561067656 4.913035616993123 -0.0503154993057251 0.0 0.0 4.7135162353515625" Properties=species:S:1:pos:R:3 sample_seed=70015 sample_index_within_seed=0 benchmark_method=C0 dft_verified=F pbc="T T T"
Li       3.81631166       0.64417364      -0.56940966
Fe      -0.07882968       4.81670774       0.22369812
As       2.29413676       1.25195418       2.05960351
As       4.02450090       3.06038176       0.16613281
H        1.95043177       3.96806519       1.51084886
H        1.17758414       1.39414076       4.29675294
Fe       0.64981133       3.98781284       2.64557053
H        1.98080925       3.71056125       3.57422546
Fe       3.27038134       3.27666880       2.52403106
Fe       1.54566499       2.80758229       0.32176708
H       -0.00870348       3.26994052       4.01140726
Li      -0.06616770       1.07498841       3.00965123
10
Lattice="4.754996299743652 0.0 -2.722632884979248 -1.5565198995720377 4.490133116267849 -2.7199435234069824 0.0 0.0 5.510197162628174" Properties=species:S:1:pos:R:3 sample_seed=70016 sample_index_within_seed=0 benchmark_method=C0 dft_verified=F pbc="T T T"
Mg       1.53102180       2.90281027      -2.18349352
O        3.05983748       1.54006532      -1.96456674
Eu       3.11073328       1.78046139       0.57353238
O        0.43562266       1.90530820      -0.75209396
O        2.62692916       3.89936130      -3.61415926
As      -0.06889898       0.65726973       0.53852796
O        0.00205138       4.26466400      -2.40086677
O        0.69091487       1.72398485       1.86380627
O        2.37245694       4.08020131      -0.71831851
Eu      -0.04649733       4.02849091       0.57032551
4
Lattice="3.736379861831665 0.0 -0.00022064185759518296 -0.0015295834903911916 3.738029405449991 -0.0015856364043429494 0.0 0.0 8.980345726013184" Properties=species:S:1:pos:R:3 sample_seed=70017 sample_index_within_seed=0 benchmark_method=C0 dft_verified=F pbc="T T T"
Tb       0.32044022       3.34110022       6.11151294
Eu       2.18860439       1.47188577       8.78244400
Au       0.31954621       3.34201416       1.61754374
Eu       2.18921045       1.47223948       3.42414975
8
Lattice="4.2432355880737305 0.0 1.850412130355835 0.10963953455505354 4.591205587015448 0.3938841223716736 0.0 0.0 6.591213703155518" Properties=species:S:1:pos:R:3 sample_seed=70018 sample_index_within_seed=0 benchmark_method=C0 dft_verified=F pbc="T T T"
O        1.35188747       1.25046621       2.30334475
O        2.35446497       0.28439210       5.16991062
N        2.16094197       0.37990766       1.87625959
N        2.07108484       3.64725936       5.59985130
O        3.40162188       0.60587925       1.79002436
Ca       0.15183977       1.17790820       4.39851630
O        1.04526878       3.38198129       4.88165686
O        2.60150956       2.80519761       6.31592664
4
Lattice="5.155262470245361 0.0 -0.00043164310045540333 -0.0002496238062906398 5.167940133741796 0.0013021387858316302 0.0 0.0 5.169806003570557" Properties=species:S:1:pos:R:3 sample_seed=70019 sample_index_within_seed=0 benchmark_method=C0 dft_verified=F pbc="T T T"
Eu       4.80270044       2.57054690       3.57105395
Eu       4.80419376       5.15426130       0.98732659
Sr       2.22542949       2.57053674       0.98529694
Sn       2.22617872       5.15453391       3.57160212
8
Lattice="3.2493178844451904 0.0 0.004902536515146494 -0.07430820133323912 4.673101943634391 -0.026778126135468483 0.0 0.0 5.278410911560059" Properties=species:S:1:pos:R:3 sample_seed=70020 sample_index_within_seed=0 benchmark_method=C0 dft_verified=F pbc="T T T"
H        1.53653610       2.62364264       1.84581649
H        1.53045015       2.62669514       4.49508860
H        3.17561873       0.63849211       0.55397003
Eu       3.16573188       1.53191610       3.18180635
H        3.15510870       2.41747061       0.53092582
Cr       1.53880253       1.53219366       0.53593020
H        1.54766883       0.44031720       1.86066731
H        1.54667385       0.43823290       4.50132348
4
Lattice="3.953150987625122 0.0 -0.004272076301276684 -1.9855058395939977 3.416779108580721 -0.004191458225250244 0.0 0.0 9.934293746948242" Properties=species:S:1:pos:R:3 sample_seed=70021 sample_index_within_seed=0 benchmark_method=C0 dft_verified=F pbc="T T T"
Eu       2.36286277       1.66798728       7.49936322
Cd       2.35517623       1.68599698       1.81912145
Eu       0.38031095       0.54633100       4.25677505
Cd       0.37886290       0.53427681       9.93000261
10
Lattice="3.76193904876709 0.0 -0.5245481729507446 -0.11524679041798461 6.392666142785416 -1.2821770906448364 0.0 0.0 7.254688262939453" Properties=species:S:1:pos:R:3 sample_seed=70022 sample_index_within_seed=0 benchmark_method=C0 dft_verified=F pbc="T T T"
Rb       1.86361442       0.02186592       2.71511332
O        2.09388317       4.71811591       3.97531729
Rb       3.67647274       3.22465103       1.81735808
Eu       2.22713975       2.81165857       5.40553836
O        1.54517763       3.87876893       0.19218758
O        0.45506100       4.10868933      -0.68038172
O        0.27195100       1.51491101       4.87775388
O        2.41006231       0.91444698      -0.30143362
Eu       0.29590227       6.01217690       5.02572354
O        3.50824855       0.70072323       0.57251933
10
Lattice="6.530364513397217 0.0 -4.180836200714111 -2.800888075874469 9.108803669023644 -1.9145618677139282 0.0 0.0 7.529492378234863" Properties=species:S:1:pos:R:3 sample_seed=70023 sample_index_within_seed=0 benchmark_method=C0 dft_verified=F pbc="T T T"
Sr      -1.38982888       5.94557899      -1.23451636
Sr       2.41931406       4.04703600      -0.03450828
Eu       2.68426287       1.96678674       3.24650622
Eu       1.57354933       7.73190929       0.86383468
Eu      -1.99246924       7.48723652       2.46487669
Eu      -0.36202574       2.03181447       5.71106532
Eu       1.74109843       5.54359095       3.99607645
Ba       3.53039168       0.20122266      -0.80370424
Eu      -0.90875757       3.59822349       1.99830866
Mg       0.27355708       0.29600672       1.31997161
12
Lattice="3.8372058868408203 0.0 0.0021840634290128946 -0.003950504580662607 6.354590141659472 -0.0004805494681932032 0.0 0.0 7.486823081970215" Properties=species:S:1:pos:R:3 sample_seed=70024 sample_index_within_seed=0 benchmark_method=C0 dft_verified=F pbc="T T T"
Eu       1.74906569       6.03170521       5.24381794
Eu       3.66927110       2.84444583       6.89524998
F        1.74812541       3.53609507       5.51997660
Eu       1.74943899       2.85647781       3.15172097
F        1.75046629       1.12215733       7.29689906
F        3.67124146       1.39495036       4.85385831
Eu       3.66960463       6.02519882       1.50433505
F        3.66905497       4.57245035       3.54442136
F        3.66932741       5.33946037       6.62106596
F        3.66968564       2.16071161       1.77762765
F        1.75228102       0.36006505       2.87833192
F        1.75004594       4.30316418       1.10301550
8
Lattice="2.8081259727478027 0.0 -0.012864837422966957 1.377872458051143 5.994353028481507 -0.5448554754257202 0.0 0.0 5.044890880584717" Properties=species:S:1:pos:R:3 sample_seed=70025 sample_index_within_seed=0 benchmark_method=C0 dft_verified=F pbc="T T T"
Fe       1.08626772       2.76751718       1.69783621
Ir       2.49458278       1.34819203       3.66346285
Ir       2.48164766       4.16778924      -0.29394696
Fe       2.50086372       0.38122824       1.08527865
Fe       2.47916381       5.07894989       2.22146375
N        2.48605722       3.26910948       2.88355392
N        2.49198619       2.26937399       0.49362921
N        1.09818111       0.01718246       4.48826619
4
Lattice="3.863355875015259 0.0 -0.00012497734860517085 -0.00015783075432075657 5.202616212358157 -0.0022403907496482134 0.0 0.0 5.20370626449585" Properties=species:S:1:pos:R:3 sample_seed=70026 sample_index_within_seed=0 benchmark_method=C0 dft_verified=F pbc="T T T"
Eu       1.85115023       4.51208006       5.08551273
Eu       1.84729729       1.91230292       2.48592780
Ge       3.78127868       1.91146425       5.08779348
Zn       3.78237461       4.51306618       2.48209022
12
Lattice="4.988916873931885 0.0 1.440293550491333 2.292328771253153 4.436117671359668 1.4471464157104492 0.0 0.0 9.34514331817627" Properties=species:S:1:pos:R:3 sample_seed=70027 sample_index_within_seed=0 benchmark_method=C0 dft_verified=F pbc="T T T"
Fe       3.83107046       2.06870305       4.24125069
Sm       2.22266536       4.12414233       9.85105380
Fe       5.62483946       1.56190382       2.98160534
Fe       4.77431973       2.63921330      10.36159499
Nd       0.94777158       0.30896688       4.88141704
Nd       6.19586822       3.50742864       5.44884152
Fe       3.30230582       1.74615290       6.11065796
Fe       4.11136835       2.24158289       8.11646058
Fe       5.22356707       4.38884270       8.80751173
Fe       1.54128384       2.24164555       7.36468887
Fe       4.20891767       3.89681994       2.98074458
Fe       3.00562747       1.56002040       2.20887346
16
Lattice="5.981943130493164 0.0 -1.3737839460372925 -2.656715374950253 5.781862043692379 -0.694068193435669 0.0 0.0 9.252337455749512" Properties=species:S:1:pos:R:3 sample_seed=70028 sample_index_within_seed=0 benchmark_method=C0 dft_verified=F pbc="T T T"
O        1.88269981       3.93603298       2.49155005
Ti       0.70068380       4.23230747       7.75125468
Eu       0.64392768       5.36255717       4.11665729
Ti      -0.13135198       1.60052077       5.77895831
O        0.42490298       3.01768027      -0.11049462
Ti       0.46184173       3.14224872       1.81707866
O        0.42728871       3.45080739       6.01163423
O        2.35147235       4.89167318      -1.14053640
Eu       3.20295243       5.34681949       1.28335665
Gd       0.27943313       0.61665020      -0.10890441
O       -0.81095932       4.16929505       2.56623425
O        0.41290658       1.34712929       2.04944825
O       -0.48619176       5.51881569       7.88863714
O        4.55957795       1.08985318       3.27494654
O        1.25236451       0.63167309       5.13372782
O        5.10038868       0.76387806       5.88169519
8
Lattice="3.6812422275543213 0.0 -0.609942615032196 -1.7932075502862121 3.2167153823236805 0.6066296696662903 0.0 0.0 11.305840492248535" Properties=species:S:1:pos:R:3 sample_seed=70029 sample_index_within_seed=0 benchmark_method=C0 dft_verified=F pbc="T T T"
Eu       3.23351984       0.44511284       6.39076233
Eu      -0.90784847       2.87499961       4.21664450
O        0.72921213       1.91496825       2.69438706
O        2.85481674       0.66565110       4.09766407
O       -0.52366946       2.65283552       6.53029105
Au       1.93070739       1.20717017       9.93011803
O        1.59963585       1.40276032       7.93428193
Au       0.39296260       2.11138303       0.70343525
6
Lattice="2.906949281692505 0.0 -0.0015553778503090143 0.0007550660880138355 3.8974482281745293 -1.3043944835662842 0.0 0.0 6.516292572021484" Properties=species:S:1:pos:R:3 sample_seed=70030 sample_index_within_seed=0 benchmark_method=C0 dft_verified=F pbc="T T T"
Co       1.88378492       3.43163773       3.41784535
Fe       0.43067520       1.44960732       3.96596726
Fe       1.88320240       0.79870026       2.00835649
Co       1.88365788       2.05684584       5.81514858
Fe       0.42991827       0.14111904       0.05447784
Rh       0.43031101       2.74540180       1.35558686
3
Lattice="3.6130199432373047 0.0 -0.9847402572631836 -0.2740437390480464 3.6042847813833285 -0.9889515042304993 0.0 0.0 7.110689640045166" Properties=species:S:1:pos:R:3 sample_seed=70031 sample_index_within_seed=0 benchmark_method=C0 dft_verified=F pbc="T T T"
Ca       3.49180590       0.43990562      -0.89262964
Eu       2.31784746       3.07392939       1.93089307
Zn       1.11148089       1.76598120       4.60174393
