14
Lattice="7.881107330322266 0.0 -2.123852491378784 -3.950464621526578 6.821170531091438 -2.1006433963775635 0.0 0.0 6.3302812576293945" Properties=species:S:1:pos:R:3 sample_seed=70000 sample_index_within_seed=0 benchmark_method=M1 dft_verified=F pbc="T T T"
Eu      -0.04792904       3.79649746       1.30192770
Eu       2.22036474       5.76339653      -2.90477618
Eu      -0.58557850       6.68953181      -0.80428337
Pd       0.54486382       0.86639094       0.26283166
Eu       5.05940601       4.78173632       1.29511386
Eu       5.63047153       1.83479359       3.42080078
Pd       5.04057153       4.76706959      -1.86666619
Pd       5.60850833       1.84102210       0.25280091
Eu       2.79478902       2.81714965      -0.79943305
Pd       2.22304962       5.73719246       0.25506893
Pd      -0.02186172       3.78927875       4.47342980
Pd      -0.58893164       6.71592371       2.36499974
Eu       0.52578869       0.85173356       3.43005589
Au       2.79212621       2.81522859       2.35809165
20
Lattice="2.9883384704589844 0.0 0.0003354452783241868 -0.004198177577107014 6.3126497613969805 -1.9200050830841064 0.0 0.0 11.485918998718262" Properties=species:S:1:pos:R:3 sample_seed=70001 sample_index_within_seed=0 benchmark_method=M1 dft_verified=F pbc="T T T"
O        0.14062014       2.60420579       4.78405034
Mn       0.14059945       2.36929806       8.12456806
Mn       1.63477609       3.51125137       1.04655337
O        0.14217495       0.20563725       5.36920457
O        1.63205090       4.99017551       5.29262846
O        0.14252823       0.66904356       9.34454936
O        0.13997057       4.63898757       0.33689822
Mg       1.63702157       1.36227218      10.78284214
O        1.63355666       4.11310738       2.84577225
Mg       0.14276933       0.46124907       2.05890841
Fe       1.63179002       5.53001807       7.03512157
O        1.63457787       3.06098203       9.60352154
Fe       0.14005992       4.57961850       9.82630720
Fe       1.63498997       1.37455944       4.97560068
Fe       0.13808381       4.54024368       4.07536416
O        0.13985518       4.40053939       7.79322303
O        0.14171120       2.09684810       0.66809935
O        1.63337624       1.87455949       7.06244410
O        1.63341817       5.94119328      -1.56272947
O        1.63627761       0.91519902       3.17730745
6
Lattice="4.22688627243042 0.0 1.5615392923355103 2.1234394986271354 3.8580121358418533 0.7804093360900879 0.0 0.0 4.492618083953857" Properties=species:S:1:pos:R:3 sample_seed=70002 sample_index_within_seed=0 benchmark_method=M1 dft_verified=F pbc="T T T"
Ni       1.91576646       1.34041626       2.36849660
Fe       4.03045091       1.36238850       5.39392932
Fe       4.03035735       2.65154470       3.14685833
Ni       4.02431019       0.10818216       3.14714069
Fe       1.91504828       0.08546903       4.60988245
Rh       1.91794879       2.65398820       4.61479067
14
Lattice="5.233535289764404 0.0 -0.8066008687019348 -1.0498422073252345 5.103745432007598 -0.8878307342529297 0.0 0.0 5.313544750213623" Properties=species:S:1:pos:R:3 sample_seed=70003 sample_index_within_seed=0 benchmark_method=M1 dft_verified=F pbc="T T T"
Ni       2.17686050       4.15524434       3.95569483
Mn      -0.21754758       4.87183571       0.41417740
Ni       1.73540421       2.74894253       1.35959145
Li       4.49693555       3.44710839       2.22227948
O        2.47542130       0.87388012       0.48609393
Mn       1.24830775       1.25302942       3.94013273
O        0.07271460       1.57216045       2.14139581
Mn       4.08317740       1.99961819      -0.41825125
O        4.80499878       0.18880845       3.98440447
Ni       3.66472864       0.51602907       2.23543731
O        3.30846290       3.82599357       0.41508419
O        0.58786719       3.08242026      -0.39731213
O        1.04977121       4.52951864       2.22452850
O        2.87149390       2.34724290       3.07590400
9
Lattice="4.36953592300415 0.0 0.0042586009949445724 -0.0005715265551762734 6.149383518362904 -3.5434439182281494 0.0 0.0 7.096073627471924" Properties=species:S:1:pos:R:3 sample_seed=70004 sample_index_within_seed=0 benchmark_method=M1 dft_verified=F pbc="T T T"
Eu       0.25225739       2.80760204       1.54391223
Pd       2.43603671       4.31450397      -0.47891598
Pd       2.43667365       2.81083100       4.00083272
Pd       2.43657434       1.29841771      -0.48212646
Eu       0.25233763       0.29684324       4.29374412
Pd       0.25205674       2.80582344      -1.35474495
As       2.43638661       4.85672292       2.19827835
Eu       0.25223417       5.31832063      -2.79857115
As       2.43677315       0.75938896       2.19593613
20
Lattice="4.9616289138793945 0.0 -0.8060628771781921 -0.21201501336668818 5.799521690934374 -1.5654473304748535 0.0 0.0 7.875673770904541" Properties=species:S:1:pos:R:3 sample_seed=70005 sample_index_within_seed=0 benchmark_method=M1 dft_verified=F pbc="T T T"
Ni       2.09798236       0.78153875       6.62544115
Ni      -0.02106899       1.77139178       1.42896698
Mn       1.52944140       0.63310819       3.01376190
Ni       1.47717863       3.11339150       2.92197295
Ni       0.55552053       1.93723066       4.97928407
Mn       1.88565277       4.02272523       5.20478007
Mn       3.42158466       5.44042541      -1.05468392
Ni       2.82004524       5.23525593       3.17645772
Mn       3.93932080       3.03900980       2.54576066
Ni       4.36701028       4.06632219       4.84454280
Mn       4.57538770       0.82373096       6.23079504
Ni      -0.01326499       4.24723196       1.29248070
Ni       2.45206203       4.25317002       0.92091860
Mn       0.33724781       5.24853067       3.54792404
Ni       4.00290481       0.57890153       2.71684834
Ni       3.04134071       1.91146068       4.60197241
Ni       0.94066633       2.94422719      -0.59720296
Ni       3.40400558       2.93157121      -0.98122687
Ni       2.43135722       1.77153178       0.98563178
Ni       0.92426142       5.41524584      -0.78281499
18
Lattice="5.4827070236206055 0.0 0.06531605869531631 -1.7805163941347077 4.898157375111527 -1.2314810752868652 0.0 0.0 8.00387954711914" Properties=species:S:1:pos:R:3 sample_seed=70006 sample_index_within_seed=0 benchmark_method=M1 dft_verified=F pbc="T T T"
Ni       4.89586290       0.92112566       4.14054813
Fe       3.22938942       0.90906384       7.05747208
O        2.27154379       4.82930524       4.35695124
Li       1.00896139       3.56628124       3.59969245
Ni       2.19139336       0.73594750       2.54728170
F        2.76591341       3.08575329       6.62786798
Li       3.49937933       3.41544843       0.59103453
Fe       0.78337324       2.47479098       7.33635846
F        0.60881436       1.88656320       2.83182245
F        3.25418265       2.12041866       3.76950404
F       -0.20311519       4.11572644       0.20634562
F       -0.61827566       4.56550008       2.95585089
F        1.25766220       0.49699468       6.75377506
Ni       3.81466881       3.80196609       4.93707454
F       -0.03859739       2.66477088       5.32236910
F        4.68398291       1.59198167       0.20116410
F        2.27465972       1.85762599       0.82069434
F        2.21647130       4.65316069       1.48891256
6
Lattice="3.926396369934082 0.0 -0.0007832408882677555 0.0017839615431579207 4.426873801312187 -2.546712875366211 0.0 0.0 5.108121871948242" Properties=species:S:1:pos:R:3 sample_seed=70007 sample_index_within_seed=0 benchmark_method=M1 dft_verified=F pbc="T T T"
Eu       0.68386780       3.13375594      -0.93955893
Fe       0.68315260       0.18415083       4.16351232
Ni       2.64677193       0.92084300       2.88635798
Fe       0.68362357       1.65862248       1.60922809
Ni       2.64595088       0.91950654       0.33443890
Ni       2.64791427       3.13471059       1.61323569
4
Lattice="5.027152061462402 0.0 2.890479326248169 1.6780349431053303 4.739929149242895 2.887685537338257 0.0 0.0 5.801565170288086" Properties=species:S:1:pos:R:3 sample_seed=70008 sample_index_within_seed=0 benchmark_method=M1 dft_verified=F pbc="T T T"
Eu       2.85425603       1.58461586       3.35234144
Eu       1.18154034       0.39734038       6.26648423
Eu       6.20613820       3.95695164       9.14120675
Mg       4.53647938       2.77252281       6.25374089
4
Lattice="4.208402633666992 0.0 -1.7183767557144165 0.004296876054746481 3.9798935106026017 0.004464313853532076 0.0 0.0 6.00894021987915" Properties=species:S:1:pos:R:3 sample_seed=70009 sample_index_within_seed=0 benchmark_method=M1 dft_verified=F pbc="T T T"
Eu       4.03581813       2.99520125       3.41377874
Si       1.06425535       2.99547762       2.14448401
Si       1.61071312       1.00500672       3.49364763
Eu       2.84641507       1.00508773       0.50470428
4
Lattice="2.808399200439453 0.0 -0.005124717019498348 -0.006533885797150729 2.80674173868254 -0.0059732431545853615 0.0 0.0 7.417604923248291" Properties=species:S:1:pos:R:3 sample_seed=70010 sample_index_within_seed=0 benchmark_method=M1 dft_verified=F pbc="T T T"
Ir       0.31490708       1.39688945       1.62131467
W        1.71805414       2.79882234       7.14551445
Mn       1.71567223       2.79899515       3.44232475
Ir       0.31435508       1.39614214       5.26345079
11
Lattice="4.360385894775391 0.0 0.002085760934278369 0.006394768412084605 6.608688598466658 -4.1925153732299805 0.0 0.0 7.822052478790283" Properties=species:S:1:pos:R:3 sample_seed=70011 sample_index_within_seed=0 benchmark_method=M1 dft_verified=F pbc="T T T"
As       3.88834722       0.65613793       3.27617964
As       1.71339801       4.57707105       3.58491787
Li       1.71084526       2.05509902       4.35301464
Li       3.89303568       3.23181884       2.84264094
As       1.71802186       6.07849125      -0.29005903
Li       1.71619743       3.87743868       1.04214733
Eu       3.89388410       6.45747420       2.11846687
Li       1.70875829       0.38996893       1.27997857
As       3.89219629       2.22521847       0.43807538
As       1.71035758       2.10158004      -0.89354751
Eu       3.89946000       4.34930329      -1.86186613
10
Lattice="3.968325138092041 0.0 -0.7196498513221741 0.0033025905485793076 5.905391723302677 0.01624406687915325 0.0 0.0 11.377448081970215" Properties=species:S:1:pos:R:3 sample_seed=70012 sample_index_within_seed=0 benchmark_method=M1 dft_verified=F pbc="T T T"
Eu       2.59898085       3.42289655       5.50555622
Eu       3.44023384       0.48925762      10.15571405
Eu       0.13883155       4.94643667       3.21691738
Ni       0.35289991       1.84878197       4.40328841
Eu       1.26449429       3.45140342       9.45106926
Ni       2.41223192       0.63068196       4.46723143
Eu       0.81000164       0.48811326       6.93410128
Eu       1.93489802       1.99319329       1.80568754
Ni       3.62946238       3.60005180      -0.17025517
Ni       1.72308402       4.80849755       0.61416386
3
Lattice="2.598541021347046 0.0 0.0072327302768826485 0.019976582835060222 2.60140497562972 0.011067853309214115 0.0 0.0 4.162663459777832" Properties=species:S:1:pos:R:3 sample_seed=70013 sample_index_within_seed=0 benchmark_method=M1 dft_verified=F pbc="T T T"
Zn       2.53435534       0.06709775       1.20504307
Fe       1.24395307       1.36822387       3.28439068
H        2.53191346       0.06722392       3.28300709
8
Lattice="3.426452398300171 0.0 -0.8195402026176453 -0.21033163134389676 3.4982509691746038 -0.8590197563171387 0.0 0.0 7.625645160675049" Properties=species:S:1:pos:R:3 sample_seed=70014 sample_index_within_seed=0 benchmark_method=M1 dft_verified=F pbc="T T T"
Zn       1.49924867       1.95992841       4.18379515
Fe       0.97997500       3.25895383       2.00667292
Fe       2.01577567       0.65581363       6.34505127
Ni       3.31767923       0.21057453       4.20326555
Ni       2.80262142       1.51339432       2.04538948
Ni       0.19507165       2.40400456       6.31957953
Fe       0.69670882       1.08860271       0.80245984
Ni       2.30224817       2.83278991      -0.04930657
12
Lattice="3.632509469985962 0.0 0.0006970177055336535 -0.00015905686630160126 5.489791867812994 -1.829019546508789 0.0 0.0 7.287835121154785" Properties=species:S:1:pos:R:3 sample_seed=70015 sample_index_within_seed=0 benchmark_method=M1 dft_verified=F pbc="T T T"
Ni       1.98827289       2.06894150       4.53057567
Ni       1.98990877       3.98547476      -0.93298604
Nb       0.17074771       2.13668525       6.35423294
Fe       1.98849526       0.15558376       6.35404285
Ni       1.98894645       2.06177610       0.88777341
Ni       0.17386803       0.27533787       0.89044552
Nb       0.17104133       2.13590827       2.71063294
Ni       0.17261843       0.27255857       4.53741775
Fe       1.98874315       0.14866835       2.71525785
Ni       1.98884668       3.98846192       2.70731860
Ni       0.17172506       3.97081249       4.53154058
Ni       0.17393243       3.97800145       0.88748714
10
Lattice="5.3341875076293945 0.0 0.42298009991645813 2.0412781373079265 4.665186911175061 -0.06229604035615921 0.0 0.0 6.025718688964844" Properties=species:S:1:pos:R:3 sample_seed=70016 sample_index_within_seed=0 benchmark_method=M1 dft_verified=F pbc="T T T"
O        1.10589899       0.86925068       4.63168969
Mn       0.30495237       0.60704153       2.95345151
O        5.58205142       2.00066219       1.81854133
H        1.15638992       2.10235219       0.96433274
Ge       4.21354641       2.93183382       1.02634379
Ge       2.77423555       0.65451303       5.09934482
O        2.94969985       1.81539322       0.47395914
O        5.06207695       3.68099836       5.70284241
O        3.56725555       4.03264304       2.16838990
O        3.90172058       0.99110101       3.81329978
4
Lattice="4.021146774291992 0.0 -0.0003525039355736226 -0.0028140098232265036 4.0214514423591226 -0.0030472080688923597 0.0 0.0 7.8917012214660645" Properties=species:S:1:pos:R:3 sample_seed=70017 sample_index_within_seed=0 benchmark_method=M1 dft_verified=F pbc="T T T"
Eu       2.63991675       2.15147591       1.95131897
Eu       2.64000059       2.15223071       5.84690704
Cd       0.63155672       0.14278929       3.89892566
Pb       0.63071615       0.13963278       7.84744839
8
Lattice="4.097713947296143 0.0 0.0008439239463768899 0.0027828424771397012 4.396937920174877 -0.0014112201752141118 0.0 0.0 5.024604320526123" Properties=species:S:1:pos:R:3 sample_seed=70018 sample_index_within_seed=0 benchmark_method=M1 dft_verified=F pbc="T T T"
Co       1.04469709       2.30405098       3.93908250
Mn       3.09137726       0.82700392       3.94168267
Mn       1.04517803       2.25122027       1.42716488
Ni       1.04209296       0.06518595       0.17977892
Co       3.09312643       0.77475659       1.43037443
Ni       3.09491468       3.00862258       2.69148380
Ni       1.04388425       0.06907016       2.67854647
Ni       3.09306778       3.01104706       0.16437429
4
Lattice="3.8523616790771484 0.0 0.0022996922489255667 0.003202694410920276 5.471813218297844 0.004064187407493591 0.0 0.0 5.472994327545166" Properties=species:S:1:pos:R:3 sample_seed=70019 sample_index_within_seed=0 benchmark_method=M1 dft_verified=F pbc="T T T"
Eu       2.37830010       4.79026765       1.19112741
Eu       2.37755894       2.05324775       3.92521889
Au       0.45272383       4.78935477       3.92566694
Tl       0.45091277       2.05264307       1.19059118
8
Lattice="6.254716873168945 0.0 -0.0060189226642251015 0.003569347402225339 6.686856270877737 -3.8543508052825928 0.0 0.0 7.722450256347656" Properties=species:S:1:pos:R:3 sample_seed=70020 sample_index_within_seed=0 benchmark_method=M1 dft_verified=F pbc="T T T"
Pr       0.06803151       1.20413936       2.70061049
Pr       3.19314351       3.43577109      -1.16434790
Eu       3.19684756       3.41235364       2.69981346
Eu       3.19372266       0.09970757       4.61372952
Eu       0.06617479       1.22886849       6.55869602
Eu       3.19154531       0.10714044       0.79186823
Eu       0.06575874       4.53558556       0.74660362
Eu       0.06525147       4.54085303       4.64650510
4
Lattice="3.424858808517456 0.0 -1.50454843044281 -0.6591496009561837 3.359767730486553 -1.5005967617034912 0.0 0.0 4.678746223449707" Properties=species:S:1:pos:R:3 sample_seed=70021 sample_index_within_seed=0 benchmark_method=M1 dft_verified=F pbc="T T T"
Mn       2.38728151       2.01387116      -1.95018355
Pt      -0.01684276       1.17173380       1.89081890
Mn       1.36453002       2.85111261       0.38659654
Fe       1.00106483       0.33404214      -0.45089843
10
Lattice="4.024066925048828 0.0 0.0012379458639770746 -0.003575224224665121 3.9253452231830877 -1.090652585029602 0.0 0.0 7.602165699005127" Properties=species:S:1:pos:R:3 sample_seed=70022 sample_index_within_seed=0 benchmark_method=M1 dft_verified=F pbc="T T T"
Zn       3.47535472       1.93827668       3.37112379
Zn       1.46254018       2.35395596       4.85677304
Fe       1.46459828       0.78202647       6.80716365
Fe       3.47618959       1.16596308       0.59496669
Fe       1.46294457       3.12594751       0.03063686
Fe       3.47395582       3.51051034       1.42220784
Fe       3.47702384       0.39721788       5.43482828
Co       3.47707580       2.75922854       6.31752376
Fe       1.46114347       3.89429756       2.79315326
Co       1.46370233       1.53186982       1.91224038
10
Lattice="4.5262837409973145 0.0 2.230992078781128 1.642865983720298 4.240991087087293 2.227508068084717 0.0 0.0 5.495533466339111" Properties=species:S:1:pos:R:3 sample_seed=70023 sample_index_within_seed=0 benchmark_method=M1 dft_verified=F pbc="T T T"
O        3.85006665       2.51056387       5.50352907
V        4.96493884       2.09227184       6.90446764
Mn       3.71289237       1.22036316       3.87292345
Zn       2.01732634       0.10457868       1.65178832
Mn       2.36350331       3.43145149       6.43996262
O        1.52147187       3.68758667       4.70802418
O        3.45473748       2.96167722       7.98609794
O        4.00769318       0.36390222       7.36668694
O        1.23450765       1.82972686       6.47321399
O        1.67227801       0.86981539       3.82626939
12
Lattice="4.5738630294799805 0.0 1.404972791671753 2.0689347627699846 4.078386627349883 1.4054598808288574 0.0 0.0 8.146053314208984" Properties=species:S:1:pos:R:3 sample_seed=70024 sample_index_within_seed=0 benchmark_method=M1 dft_verified=F pbc="T T T"
Fe       2.01417800       1.87498488       4.44701054
Gd       3.00971782       2.48395416       9.36059361
Ni       5.86116664       2.80442658       8.21421202
Fe       5.21123728       3.83478584      10.32954083
Ni       0.77179491       1.10981932       8.48779556
Ni       4.84527150       0.80312012       7.52712451
Ni       3.98588055       3.08408405       6.17747970
Ni       4.70170535       2.14257010       3.84224087
Ni       1.40044874       0.06917160       2.43880403
Ni       3.65066808       0.06968909       3.13109322
Ni       4.24596928       0.43366169       5.33315728
Ni       2.51667568       0.80254630       6.80966027
8
Lattice="4.1918182373046875 0.0 -0.008995862677693367 -0.007259248537354902 4.457781126258498 0.0017407032428309321 0.0 0.0 5.182962894439697" Properties=species:S:1:pos:R:3 sample_seed=70025 sample_index_within_seed=0 benchmark_method=M1 dft_verified=F pbc="T T T"
Ni       2.67570445       2.67802330       0.74516752
Ir       0.57838233       3.41131713       4.63533075
Fe       0.57931282       1.20627899       0.76255094
Fe       2.68143597       0.45226998       4.60082028
Ni       0.58415112       1.21235206       3.32838404
Ni       2.67818682       2.65832583       3.34215781
Ni       0.57975464       3.40736876       2.05535768
Ir       2.67769066       0.43816951       2.03089660
4
Lattice="3.350043773651123 0.0 1.936421275138855 1.1203911179668467 3.1584008593034656 1.9312989711761475 0.0 0.0 3.8691227436065674" Properties=species:S:1:pos:R:3 sample_seed=70026 sample_index_within_seed=0 benchmark_method=M1 dft_verified=F pbc="T T T"
Mn       1.92603911       0.95677323       2.61737193
Be       3.04311149       1.74639397       4.55155151
Mn       0.80851241       0.16780979       0.68551475
Co       4.16071147       2.53625153       6.48622686
12
Lattice="4.989173412322998 0.0 1.534422755241394 2.2713735922586684 4.452154282918482 1.5407336950302124 0.0 0.0 8.860661506652832" Properties=species:S:1:pos:R:3 sample_seed=70027 sample_index_within_seed=0 benchmark_method=M1 dft_verified=F pbc="T T T"
Nd       1.01439756       1.25152912       6.91917464
Fe       2.91594980       2.42024451       5.01395199
Fe       5.50419905       2.41832377       5.81037338
Fe       4.22670073       3.21516049       9.65903238
Nd       4.89299270       0.57279795       3.18838445
Nd       4.83073370       3.59807559       3.39375997
Fe       6.20012366       4.43215129       7.83284677
Fe       2.40228812       2.10797264       2.40256354
Fe       3.12653590       1.07234966       8.91710183
Fe       1.81455073       3.21868751       8.92108861
Fe       1.82255800       0.27753646       4.27313183
Fe       3.63590925       2.85733842       7.28767270
16
Lattice="5.00199031829834 0.0 -0.0004307354975026101 -2.5058561273489492 4.329228441857063 0.0004863646754529327 0.0 0.0 8.181140899658203" Properties=species:S:1:pos:R:3 sample_seed=70028 sample_index_within_seed=0 benchmark_method=M1 dft_verified=F pbc="T T T"
Mn       2.86167792       0.85528062       5.93873756
Ni       2.85636114       2.30813390       3.88272837
Mn       0.35628601       2.29913261       3.91075042
Fe      -2.14414504       3.73865130       7.97841137
Ni      -0.88532603       1.57934437       8.00202160
Ni       1.60377820       1.57766851       7.99871165
Ni       0.35627644       3.73155231       7.99998504
Ni       0.35925778       0.84871732       5.95307940
Ni       1.61207427       3.02229592       5.95366571
Ni      -0.89775546       3.02186576       5.95246377
Ni       1.61347984       3.02271808       1.84209777
Ni       4.11909311       0.12912291       3.88638427
Ni       1.59963589       0.12895745       3.88480380
Ni       0.35934965       0.84728712       1.84302897
Ni       2.85980158       0.85384223       1.85684975
Ni      -0.90126163       3.02300838       1.84318732
8
Lattice="3.4982450008392334 0.0 -0.002055661054328084 -1.7537838716932583 3.028643270948004 0.001253550872206688 0.0 0.0 11.027501106262207" Properties=species:S:1:pos:R:3 sample_seed=70029 sample_index_within_seed=0 benchmark_method=M1 dft_verified=F pbc="T T T"
Mn       0.71006666       1.14674788       8.18728447
Mn       0.70717046       1.14747808       2.88838119
Cd       2.46039776       0.13838035      10.99279018
O        2.46142709       0.13714146       3.49278919
Fe       2.45649457       0.13960618       5.54169426
O        0.71123406       1.14604095       0.80931949
O        0.70628637       1.14808770       6.08129979
O        2.46027834       0.13674152       8.74434203
6
Lattice="4.298423767089844 0.0 2.477513551712036 1.4316092736726769 4.051083506887894 2.4787557125091553 0.0 0.0 4.960305213928223" Properties=species:S:1:pos:R:3 sample_seed=70030 sample_index_within_seed=0 benchmark_method=M1 dft_verified=F pbc="T T T"
Eu       4.24511011       1.84912872       6.41945429
Co       1.37909772       1.34008429       1.46078988
Co       2.09552978       3.36823976       5.17958332
Co       4.24121659       3.36506210       3.93796962
Pd       2.81107225       0.83524482       3.94160754
Co       2.09599778       3.36673424       2.70133343
3
Lattice="3.8832626342773438 0.0 0.0008571599028073251 -0.0021347916926201817 3.9608150928033785 -2.2866814136505127 0.0 0.0 4.5724663734436035" Properties=species:S:1:pos:R:3 sample_seed=70031 sample_index_within_seed=0 benchmark_method=M1 dft_verified=F pbc="T T T"
Zn       3.60647154       2.33143413       1.24900116
Eu       1.66183459       1.01025265       3.53610526
Zn       3.60530973       3.65088347      -1.03672476
