14
Lattice="5.238413333892822 0.0 2.9582326412200928 1.7409856728916104 4.9410479525632836 2.9544081687927246 0.0 0.0 6.014012336730957" Properties=species:S:1:pos:R:3 sample_seed=70000 sample_index_within_seed=0 benchmark_method=M2 dft_verified=F pbc="T T T"
Mn       0.59234417       1.30132472       2.96800999
Li       2.25731765       4.36844008       8.85977029
O        4.88830226       2.52172885       7.34868296
O        4.10929829       0.29777325       6.04653259
Fe       3.17080129       1.30835790       4.43316692
Mn       4.04921788       3.81727721       5.92411864
O        1.45579692       0.09013125       4.22646881
Mn       3.15889019       1.30138392       7.48822440
Mn       5.83694846       3.19599695       8.99129742
O        2.24358001       2.32993652       2.83834128
O        2.53034098       2.53208793       6.04331569
O        4.89429317       2.52933574       4.66034763
O        3.82650492       0.09204773       2.84207077
O        1.47027066       0.10813455       1.54706135
20
Lattice="2.8718910217285156 0.0 0.002659982070326805 -1.4257621440612673 4.814275122348873 -0.9363856911659241 0.0 0.0 12.863377571105957" Properties=species:S:1:pos:R:3 sample_seed=70001 sample_index_within_seed=0 benchmark_method=M2 dft_verified=F pbc="T T T"
Ni       1.78859263       1.29828284      12.10449778
Mn       0.35022924       3.68378040       5.04145610
Mn       0.34682594       1.35492366       1.85576401
O        1.78355532       2.58781417       5.87293599
O        1.78069545       0.26720752       2.57467352
Li       0.35206808       3.77618190       0.03476968
Ni       1.79082622       3.58062476      10.22801636
Li       0.35009841       1.30656057       9.70108772
O        0.35604078       4.79928727       9.62877457
Ni       0.34720037       1.49714310       7.23483148
O        1.78538781       2.29036097       8.61132050
Li      -1.08269284       3.85344834       7.53474487
O        0.34547386       0.25752444       0.23191771
Li       1.77949971       1.27832123       4.32715407
O        0.35161554       2.53617867      11.25396685
O       -1.08319786       4.74639635       4.28319944
O        0.34996668       2.50162894       3.43403777
O        0.35269142       4.79268850       6.56542681
O        1.78653567       2.41162379       1.04369000
Li      -1.08468767       3.74040200       2.55065998
6
Lattice="4.056477069854736 0.0 2.4723403453826904 1.3871090172747815 3.816059258406313 2.4721579551696777 0.0 0.0 4.749909400939941" Properties=species:S:1:pos:R:3 sample_seed=70002 sample_index_within_seed=0 benchmark_method=M2 dft_verified=F pbc="T T T"
Co       0.95142123       0.68279753       3.07112577
Co       2.87833302       1.28193159       6.51002382
Rh       0.98869239       2.35387299       5.14266616
Co       4.09895302       2.88737427       5.18867079
Co       3.08297789       0.98122774       4.13528631
Rh       2.51594778       3.42992007       3.11868446
14
Lattice="3.9965660572052 0.0 0.02271328866481781 -2.0138741432269858 4.1646420754690725 -0.6654057502746582 0.0 0.0 6.171367645263672" Properties=species:S:1:pos:R:3 sample_seed=70003 sample_index_within_seed=0 benchmark_method=M2 dft_verified=F pbc="T T T"
Ni      -0.15213393       0.85247571       1.04182477
Mn       1.88394761       2.54189729       1.75438034
Ni       1.80450021       3.85147356       4.11489228
H        0.90077833       2.58984305       4.57210513
H        2.81789328       0.85871762       4.12798408
Mn      -0.14865051       3.29388985      -0.27557057
H       -1.05049640       3.30569006       3.13714370
Ni       1.86967488       1.53542074       5.36218345
H        2.35960886       1.10096855       0.64102834
Ni       1.90592885       0.17092223       2.89011480
Ni      -0.13227380       1.97209188       3.43733659
H       -1.15523139       3.93544946       1.06901971
H        0.07016822       2.30039956       1.78892018
H        0.71874607       0.44131109       5.84468664
9
Lattice="4.719089508056641 0.0 -0.00011834373435704038 -0.0032128932064756834 7.406486291199918 -4.2754340171813965 0.0 0.0 8.554830551147461" Properties=species:S:1:pos:R:3 sample_seed=70004 sample_index_within_seed=0 benchmark_method=M2 dft_verified=F pbc="T T T"
Eu       1.02732159       2.53099736       3.27164195
Sb       3.38593528       5.00265795       2.46722778
Eu       3.38714540       2.52818283       0.30979218
Sb       3.38781812       0.06312532       2.46752391
Eu       1.02620394       5.53280403      -0.07206704
Eu       3.38686773       4.36459938       5.68477619
Eu       3.38767677       0.69243266       5.68142983
Ge       1.02709583       2.53220387       6.74590127
Eu       1.02605294       6.93310635       4.20342619
20
Lattice="6.33415412902832 0.0 -0.016657602041959763 0.03914301523561775 6.284059686332759 -0.14180220663547516 0.0 0.0 6.213358402252197" Properties=species:S:1:pos:R:3 sample_seed=70005 sample_index_within_seed=0 benchmark_method=M2 dft_verified=F pbc="T T T"
Ni       4.12002674       5.28999170       5.32880744
Ni       5.54759943       2.74307866       2.20699720
Mn       2.38695475       6.10382707       0.49508966
Ni       1.80640265       3.94193648       5.33163994
Ni       0.88865648       4.50829763       1.40018327
Ni       2.47270517       1.33054383       4.80059336
Ni       5.70052619       3.73187697       6.01864764
Mn       4.93043117       5.38822995       1.62893086
In       4.61437618       1.44224420       0.15777305
Ni       0.56354870       0.62806602       2.41596372
Ni       1.21682925       2.09477727       0.63208780
Ni       0.27208589       6.11179656       5.59677106
Ni       3.31572755       3.65797271       1.05982267
Mn       0.20350097       2.10418470       4.51369236
Mn       4.01624357       3.15213170       4.05028595
In       2.50939220       5.41497460       3.27945782
Ni       1.68264384       2.96037390       2.94914476
Ni       3.21529735       1.37476728       2.27029592
Ni       6.14471251       4.61797004       3.70875048
Ni       4.85304465       0.59174254       3.80962204
18
Lattice="4.856995105743408 0.0 0.9953750371932983 2.329168368604968 4.263763821530844 0.9957877397537231 0.0 0.0 12.33871078491211" Properties=species:S:1:pos:R:3 sample_seed=70006 sample_index_within_seed=0 benchmark_method=M2 dft_verified=F pbc="T T T"
Eu       1.96944989       0.66714217       7.94437644
Ni       5.16212548       2.56169030       4.71982428
Eu       1.19648217       0.20709957      11.71732691
Eu       2.80850810       4.04405511       3.87280219
Ni       5.96879785       3.04018686      13.12358577
Ni       2.56924715       1.02466650       5.04105516
Ni       3.57580885       1.62001536      12.46413081
Ni       4.00400513       0.43125073      10.36754062
Ni       6.75926943       3.50890868       9.27644040
Ni       1.95135841       2.09622262       1.86756651
Ni       5.95514937       3.03302392       7.01656221
Ni       2.73879901       2.56367056      10.36835424
Ni       4.35908169       2.08368449       8.64164976
Ni       3.53234064       3.03328467       6.51829137
Ni       4.79489219       0.90453929       6.51912391
Ni       4.37803750       2.09482040       2.36957619
Ni       5.16908032       2.56260749      10.86416217
Ni       5.54204242       4.22932351       2.86936040
6
Lattice="2.487830400466919 0.0 -0.00012644861999433488 0.0027858935093513027 2.467271900909291 0.0015446206089109182 0.0 0.0 11.38720703125" Properties=species:S:1:pos:R:3 sample_seed=70007 sample_index_within_seed=0 benchmark_method=M2 dft_verified=F pbc="T T T"
Fe       2.12930412       1.25330314      11.19048358
Fe       0.88591860       1.25179900       7.26469301
Ni       2.12969942       1.25262107       3.37676433
Ni       0.88485639       0.01880501       1.61449223
Ni       0.88288940       0.01725527       5.16966523
Ni       2.12791340       0.01823042       9.05297331
4
Lattice="4.361567497253418 0.0 -0.0020700693130493164 -2.1812128315475263 3.5558681032031574 -1.3013819456100464 0.0 0.0 7.353660583496094" Properties=species:S:1:pos:R:3 sample_seed=70008 sample_index_within_seed=0 benchmark_method=M2 dft_verified=F pbc="T T T"
As       1.55079427       1.93477428       1.39716597
Eu       1.55259663       0.11211958       3.75927678
Eu       3.73003141       0.20292414       0.33968157
Cl      -0.62952659       1.93624201       5.07578147
4
Lattice="2.3899857997894287 0.0 -0.7248385548591614 -0.2050866653050321 4.289626787989574 -0.6930972337722778 0.0 0.0 4.327007293701172" Properties=species:S:1:pos:R:3 sample_seed=70009 sample_index_within_seed=0 benchmark_method=M2 dft_verified=F pbc="T T T"
Co       1.62182130       1.51861150       3.35949205
Ni       2.27507641       0.51045751       1.20014434
Fe       0.97507557       2.64890517       1.21417897
Ni       0.32894857       3.68920489       3.39143618
4
Lattice="2.662627696990967 0.0 -0.0044448114931583405 -0.0030584650242616767 4.160986253129504 -0.014706987887620926 0.0 0.0 4.561543941497803" Properties=species:S:1:pos:R:3 sample_seed=70010 sample_index_within_seed=0 benchmark_method=M2 dft_verified=F pbc="T T T"
Ir       2.11829323       1.41170808       2.08771336
Mn       0.78705103       3.48838960       1.35850413
Mn       0.78457519       1.40982913       4.48709255
Ir       2.11307973       3.49059023       3.73130295
11
Lattice="4.334369659423828 0.0 -0.0024074818938970566 -0.0034269035643195154 6.680655077337493 -3.8678369522094727 0.0 0.0 7.705626010894775" Properties=species:S:1:pos:R:3 sample_seed=70011 sample_index_within_seed=0 benchmark_method=M2 dft_verified=F pbc="T T T"
Eu       3.05086159       1.35351079       2.58997865
Zn       3.04898909       3.57556982       4.90807913
Li       0.88544914       3.58317461       0.61659293
Li       0.88446930       5.20703073      -2.20318195
Li       0.88533343       1.94866171       5.50584391
Zn       0.88261989       6.23425712       0.26605531
Eu       3.04889180       5.80194900       2.59270496
Zn       0.88497976       0.93179902       0.26389855
Zn       0.88345453       3.57265222       3.37877648
Zn       3.05013081       2.25133067      -0.50291019
Zn       3.04862528       4.91434997      -0.49886408
10
Lattice="5.483203887939453 0.0 -0.007656433153897524 -2.7305053700429203 4.439968417414065 -0.9369989633560181 0.0 0.0 7.866792678833008" Properties=species:S:1:pos:R:3 sample_seed=70012 sample_index_within_seed=0 benchmark_method=M2 dft_verified=F pbc="T T T"
Ni       1.08417797       2.19704220       5.45378434
Ni      -0.17152230       2.20077115       1.52684367
Ni       1.12715974       3.26785672       3.28203638
Eu      -1.59949859       3.54860800       4.42023626
Ni      -0.21211023       1.12410788       3.69544788
Ni      -0.20292029       3.26155002      -0.64783487
Eu       2.52753266       3.55132244       0.48212437
Eu       2.51438473       0.84407954       2.55591741
Ni       1.11261362       1.13243712      -0.23936591
Eu       3.86915990       0.84522048       6.48881507
3
Lattice="2.6082677841186523 0.0 0.0026636221446096897 -1.2955260926053143 2.2619083763099668 0.0066711073741316795 0.0 0.0 6.295648574829102" Properties=species:S:1:pos:R:3 sample_seed=70013 sample_index_within_seed=0 benchmark_method=M2 dft_verified=F pbc="T T T"
Zn       1.38784409       0.40811902       1.55275978
Fe       0.09003289       1.16101816       3.74863761
Ni       1.38939324       1.91782473       5.76777476
8
Lattice="4.161650657653809 0.0 -0.0026345127262175083 0.0009689409413120371 4.444065465202057 0.0019557310733944178 0.0 0.0 5.144946575164795" Properties=species:S:1:pos:R:3 sample_seed=70014 sample_index_within_seed=0 benchmark_method=M2 dft_verified=F pbc="T T T"
Zn       0.36748078       2.59763924       0.71441674
Fe       2.44547292       1.15685148       3.23999229
Fe       2.44635543       3.41716898       2.01009461
Zn       2.44671218       3.37529274       4.53134959
Ni       2.44623645       1.12850844       0.68839284
Fe       0.36604186       0.44857289       4.52209937
Fe       0.36592440       0.41499712       2.00268825
Ni       0.36515227       2.64390174       3.26068622
12
Lattice="5.083611965179443 0.0 0.9054776430130005 1.0560725561689703 4.191009408067116 0.9639845490455627 0.0 0.0 6.722377777099609" Properties=species:S:1:pos:R:3 sample_seed=70015 sample_index_within_seed=0 benchmark_method=M2 dft_verified=F pbc="T T T"
Zn       5.11217812       3.04841636       5.13197746
Fe       3.74567876       0.95300908       5.61578973
Zn       2.04227034       0.95591761       0.81944774
Zn       4.27122083       3.04169390       2.72257445
Fe       0.36640291       0.94177129       2.77076397
Ni       1.20051771       0.96856485       5.15015881
Fe       0.89388320       3.09149700       6.62465694
Fe       3.40435881       3.04524510       7.03415576
Fe       1.72859230       3.04055379       2.28262162
Fe       2.55515843       3.05645179       4.68677138
Ni       2.88972256       0.96816660       3.24760109
Ni       4.60936600       0.96952772       1.27812782
10
Lattice="3.5068273544311523 0.0 0.8758081197738647 -0.002105249121584142 5.929099662865045 0.0077109746634960175 0.0 0.0 7.464117527008057" Properties=species:S:1:pos:R:3 sample_seed=70016 sample_index_within_seed=0 benchmark_method=M2 dft_verified=F pbc="T T T"
Eu       0.66935609       5.38833294       6.64831085
O        2.69268809       0.75342259       5.99587595
Eu       1.95255856       2.76232904       1.49834269
O        1.50513495       1.34994137       3.29075019
Eu       0.98895534       2.41974178       5.36128409
Eu       3.21427197       5.73443813       3.90962416
O        2.47641444       3.71760612       6.87275852
O        0.15660460       4.31206590       1.24284246
O        0.40308621       1.50805417       0.24951823
O        1.25964563       4.47769511       4.27691924
4
Lattice="3.7163076400756836 0.0 -0.0008401253144256771 0.000590107297550234 3.716274453041614 -0.0011878842487931252 0.0 0.0 7.449452877044678" Properties=species:S:1:pos:R:3 sample_seed=70017 sample_index_within_seed=0 benchmark_method=M2 dft_verified=F pbc="T T T"
Li       2.35437886       0.04547349       2.57208246
Li       2.35571019       0.04586085       6.35811903
Dy       0.49683781       1.90197461       0.74055137
Gd       0.49870115       1.90237133       4.46013687
8
Lattice="6.291845321655273 0.0 0.0023893730249255896 0.003252427430155498 6.666602771837193 -3.843034505844116 0.0 0.0 7.694644927978516" Properties=species:S:1:pos:R:3 sample_seed=70018 sample_index_within_seed=0 benchmark_method=M2 dft_verified=F pbc="T T T"
Eu       5.09363403       5.74801300       0.04184687
Eu       1.95066297       1.34025779       3.88876600
Eu       1.94771871       4.62116382      -1.91206550
Eu       5.09204827       5.74459173       3.82963137
Y        1.95141569       4.65458740       1.93417001
Eu       5.09657619       2.46357822       1.93785030
Y        5.09511134       2.43280026       5.78384622
Eu       1.94383072       1.34086873      -0.02218273
4
Lattice="3.949347734451294 0.0 -0.00027511920779943466 -0.0017969274280602995 5.632355403359655 0.0009055116679519415 0.0 0.0 5.631914138793945" Properties=species:S:1:pos:R:3 sample_seed=70019 sample_index_within_seed=0 benchmark_method=M2 dft_verified=F pbc="T T T"
Eu       0.64163558       4.79024636       0.33727989
Eu       0.64330168       1.97369098       3.15500005
Mg       2.61670187       4.79095606       3.15031235
Tl       2.61756213       1.97276021       0.34136655
8
Lattice="5.860217094421387 0.0 -0.0023370475973933935 0.005061577029945697 6.351687321931944 -3.671536922454834 0.0 0.0 7.340034008026123" Properties=species:S:1:pos:R:3 sample_seed=70020 sample_index_within_seed=0 benchmark_method=M2 dft_verified=F pbc="T T T"
Eu       1.86109621       5.04491367       2.89097338
Eu       1.85083223       2.00346872       1.13427530
Eu       4.79141087       6.14995901       0.97406761
Eu       1.85561339       2.00193619       4.66207850
Eu       4.78464705       3.10879687      -0.78187539
Pb       4.78360295       3.02150006       2.89117103
Pb       1.85518433       5.13756412      -0.78000272
Eu       4.78282320       6.15625269      -2.54858420
4
Lattice="2.777259588241577 0.0 -0.0010542647214606404 0.013849640709277349 3.175475674509179 -1.898608684539795 0.0 0.0 3.7699813842773438" Properties=species:S:1:pos:R:3 sample_seed=70021 sample_index_within_seed=0 benchmark_method=M2 dft_verified=F pbc="T T T"
H        0.65887745       0.62287004      -0.33528038
Ni       0.66528780       2.19896957       0.63512182
Mn       2.04260842       0.05851272       0.65528597
H        2.05036006       1.71759527       1.47318888
10
Lattice="2.682554244995117 0.0 -0.0003781035775318742 -0.0029299409754304792 6.762801012497065 -0.005397730506956577 0.0 0.0 6.7697858810424805" Properties=species:S:1:pos:R:3 sample_seed=70022 sample_index_within_seed=0 benchmark_method=M2 dft_verified=F pbc="T T T"
Zn       2.58535606       0.83087193       3.60168766
Zn       2.58338427       4.21365652       0.21480265
Fe       2.58446202       3.32996667       2.71722157
Fe       1.24135259       5.34063859       2.47967028
Fe       2.58414524       1.71909059       6.10079571
Co       2.58178835       6.70969817       1.09505789
Fe       1.24320574       3.09307740       4.73120719
Fe       1.24353261       1.94925686       1.33943825
Fe       1.24064983       6.47059026       5.86347455
Co       2.58344053       5.09429433       4.48132033
10
Lattice="4.4523396492004395 0.0 -2.298900604248047 -0.0073440660903922785 4.681458434731073 -0.011857070960104465 0.0 0.0 5.055810928344727" Properties=species:S:1:pos:R:3 sample_seed=70023 sample_index_within_seed=0 benchmark_method=M2 dft_verified=F pbc="T T T"
Fe       0.58469335       3.71608783       1.92399333
H        1.44078329       3.71042199       0.52215072
Eu       1.77487731       1.36758828      -0.01113646
Eu       3.52418177       3.71043902       2.12270913
H        3.91262829       2.52808532      -0.74050562
H        1.39012784       2.55185924       2.84653734
H        3.91793995       0.21486031      -0.73454769
H        1.40025462       0.18843733       2.84113726
H        3.85220141       1.37088050       1.59008034
Fe       0.26372358       1.36392467       2.48352933
12
Lattice="5.191927909851074 0.0 -0.00521963182836771 0.00019595446902693006 5.211306091439171 -0.0050713797099888325 0.0 0.0 5.204913139343262" Properties=species:S:1:pos:R:3 sample_seed=70024 sample_index_within_seed=0 benchmark_method=M2 dft_verified=F pbc="T T T"
Fe       4.14895336       0.83942206       3.02669144
Fe       1.55225342       0.84119374       0.42825129
Fe       1.55356991       3.44692227       3.02759162
Fe       4.15023820       3.44682971       0.42367784
F        2.38468092       4.28109232       1.25144594
F        4.98907452       0.00637858       4.80573947
F        4.98158543       4.26721204       2.19796294
F        0.71355012       1.66345656       2.20776003
F        2.39339783       0.01670809       3.85664166
F        0.72449460       2.61240961       4.80417162
F        3.30869870       1.67738095       1.25011507
F        3.31657792       2.62338437       3.85776723
8
Lattice="2.6090967655181885 0.0 -0.006393318995833397 -0.007017107777923659 2.610602484870199 -0.0009489910444244742 0.0 0.0 14.106529235839844" Properties=species:S:1:pos:R:3 sample_seed=70025 sample_index_within_seed=0 benchmark_method=M2 dft_verified=F pbc="T T T"
Ni       1.40096915       0.98962119       8.13196638
Ir       0.09391892       2.29473252       9.92930836
Ni       0.09289479       2.29582253       6.39893064
Fe       1.40143173       0.98993816       1.03088244
Ni       1.40297614       0.99121186      11.73327098
Ni       0.09485902       2.29606807      13.44208292
Ni       0.08995442       2.29366445       2.76815168
Ir       1.39759235       0.99007120       4.60139077
4
Lattice="3.8646726608276367 0.0 0.00011731081031030044 0.0002985620982086542 5.20952748396778 -0.0025427003856748343 0.0 0.0 5.210726261138916" Properties=species:S:1:pos:R:3 sample_seed=70026 sample_index_within_seed=0 benchmark_method=M2 dft_verified=F pbc="T T T"
Eu       1.72550729       0.67596157       3.22259606
Eu       1.72220943       3.28215599       0.61694249
Ge       3.65657304       3.28129153       3.22259525
Zn       3.65746175       0.67688123       0.61587630
12
Lattice="3.990690231323242 0.0 0.0007771640084683895 0.001693918480682287 5.883150810519822 1.111686110496521 0.0 0.0 14.564270973205566" Properties=species:S:1:pos:R:3 sample_seed=70027 sample_index_within_seed=0 benchmark_method=M2 dft_verified=F pbc="T T T"
Eu       0.26381969       4.36949139       4.35019722
Eu       2.25839604       1.24614818       4.81645457
Eu       0.26488535       3.70363789      15.08483985
Eu       2.25888669       4.36869468      11.61965035
Eu       0.26251954       1.25608071      12.08302748
Ni       0.26264878       3.13929680       9.86841092
Eu       2.25843220       3.69894742       7.81790584
Eu       0.26167794       0.57996940       8.29074318
Ni       2.25651693       1.81541959      10.03682099
Ni       0.26460362       1.81871670       2.75979021
Eu       2.25823574       0.58616614       0.99300217
Ni       2.25978303       3.12312247       2.58227270
16
Lattice="4.322990894317627 0.0 0.004941415041685104 -0.0006414829026316052 5.107816179048401 0.00114268041215837 0.0 0.0 8.227335929870605" Properties=species:S:1:pos:R:3 sample_seed=70028 sample_index_within_seed=0 benchmark_method=M2 dft_verified=F pbc="T T T"
Mn       1.52631515       0.23995600       6.63424725
Ni       3.70291996       1.51128401       2.54895793
Ni       0.88912385       1.51706977       0.48494070
Mn       3.06449184       0.24025027       0.52468005
Mn       1.52790317       2.79537374       2.56290424
Ni       0.08900784       2.79501327       4.60841414
Ni       1.53652288       2.79231859       6.65089194
Ni       2.27221679       1.51716673       4.59734686
Ni       0.88703216       4.07088104       0.48240830
Mn       3.06614714       2.79647615       0.44515995
Ni       0.08765554       0.24286269       4.58277022
Ni       2.27090883       4.07174507       4.59970812
Ni       3.70223859       4.06637275       6.64577999
Ni       3.70119927       1.52126234       6.64504675
Ni       1.53691502       0.24025113       2.54567797
Ni       3.70126144       4.07713900       2.55349838
8
Lattice="4.0043206214904785 0.0 0.004427745938301086 -2.0062284864130224 4.007892642257158 -1.4158432483673096 0.0 0.0 5.690909385681152" Properties=species:S:1:pos:R:3 sample_seed=70029 sample_index_within_seed=0 benchmark_method=M2 dft_verified=F pbc="T T T"
Fe       1.15077131       1.07435020       0.64140219
Co       1.15023026       1.08213882       3.48680779
Co       1.14758111       3.06785456      -0.75600747
Fe      -0.85373424       3.08426385       3.53605407
Fe       1.14773388       3.08477269       2.09401184
Co      -0.85218819       3.07425010       0.69159664
Co       3.15252296       1.09003422       4.93421815
Fe       3.15327328       1.07159569       2.08942342
6
Lattice="4.10001277923584 0.0 8.633123070467263e-05 -0.000587049448647669 3.842567637422906 -2.2166588306427 0.0 0.0 4.434764862060547" Properties=species:S:1:pos:R:3 sample_seed=70030 sample_index_within_seed=0 benchmark_method=M2 dft_verified=F pbc="T T T"
Co       2.51097310       3.20287711      -0.29544617
Co       0.46037092       1.97296050      -1.06258662
Co       2.51118517       0.69181800      -0.37898524
Co       0.46042931       3.25014900       1.15476931
Co       2.51150709       2.01903636       1.91942290
Rh       0.46194159       0.69081202       1.15385996
3
Lattice="3.919231653213501 0.0 -2.261004686355591 -0.0010951878596872828 4.022334903393198 -0.0002351306757191196 0.0 0.0 4.526760101318359" Properties=species:S:1:pos:R:3 sample_seed=70031 sample_index_within_seed=0 benchmark_method=M2 dft_verified=F pbc="T T T"
Zn       0.56138764       3.14624127      -0.23032101
Eu       3.17341784       1.13324968      -0.22773907
Zn       1.86838168       3.14639159       2.03173994
