4
Lattice="2.6613127628935267 0.004311944818237964 0.5348129112572958 1.2700105356714193 2.3386100298463086 0.5354490318987843 0.005745677433904091 0.002835650857845955 6.800513848570845" Properties=species:S:1:pos:R:3:forces:R:3 structure_index=0 total_energy=-29.073139190673828 stress="0.12331167608499527 -0.04649971425533295 -0.021115928888320923 -0.046499717980623245 0.16860494017601013 -0.007590002380311489 -0.0211162306368351 -0.007590228226035833 -0.05026678368449211" pbc="T T T"
Fe       1.26891958       2.18991414       2.08190718      -0.01131161      -0.00734659       0.03304452
Fe       2.17410170       1.14658211       4.43192550       0.00421593       0.00328569      -0.00440082
H        1.08475701       0.49832176       2.99415245       0.00253125       0.00095557      -0.00793563
Ir       3.05310616       1.67017555       6.93219649       0.00456443       0.00310535      -0.02070802
