12
Lattice="5.310338301528551 0.0004858276910695217 -0.0011819556294320468 -0.0005691175637326547 7.665195601971001 0.13677328499036573 0.002173487286058422 0.057178087642716785 9.933605578989988" Properties=species:S:1:pos:R:3:forces:R:3 structure_index=0 total_energy=-86.56922912597656 stress="-0.0033206462394446135 4.843608166993363e-06 4.549832283373689e-06 4.828845248994185e-06 -0.005182312335819006 -0.001056116190738976 4.4464941311161965e-06 -0.0010561752133071423 -0.004379702266305685" pbc="T T T"
Eu       3.41462329       6.40068959       5.27855257      -0.00033281       0.02062699       0.01876690
Eu       3.41588721       5.36116043       9.01927391      -0.00109579      -0.00871620       0.00786035
Eu       3.41545725       2.68621236       6.11180135      -0.00110392       0.00368449       0.00649870
Eu       0.76006839       0.29822536       7.58603569       0.00083563      -0.01240277       0.00465614
Tl       3.41435924       4.80004644       2.44314871      -0.00066122      -0.00971692      -0.03263669
Eu       3.41434465       1.55073050       2.58793205      -0.00030011      -0.01425635      -0.01726901
Tl       0.75955010       4.56265331       7.03376067       0.00110179       0.00859763      -0.00033199
Eu       0.75850095       6.76205034       1.64989170       0.00042464       0.00387726       0.03485502
Eu       0.75829601       3.02673247       0.44137602       0.00056286      -0.00574659      -0.01766471
Mg       0.75916379       4.02478634       3.98665706       0.00066366       0.00078649      -0.01566610
Tl       0.75956581       0.99867849       4.38834681       0.00025615       0.00814053       0.02225062
Tl       3.41578851       1.10741148       9.30389958      -0.00035090       0.00512540      -0.01131925
