10
Lattice="3.4244935512542725 0.0 0.02730335295200348 -0.020112927818764403 6.161991196630187 0.08704037219285965 0.0 0.0 6.995391845703125" Properties=species:S:1:pos:R:3 pbc="T T T"
Mn       0.08456645       5.06883417       2.34877143
Mn       1.80977461       1.10545395       5.79037605
As       1.80401768       3.44133430       5.45325221
Mn       0.09316776       2.31483034       3.79315433
Mn       1.79574573       4.96404494       0.29689300
As       0.09937689       0.49198470       0.41262627
Mn       0.08473001       5.29620457       5.15913548
As       1.81172119       0.20065871       3.53630812
Mn       0.09174940       2.88280512       0.27123976
As       1.80218717       3.24922714       2.08398074
