20
Lattice="5.501377582550049 0.0 -0.15717174112796783 1.77103809553185 4.0833870958093845 -0.03187435120344162 0.0 0.0 9.966219902038574" Properties=species:S:1:pos:R:3 pbc="T T T"
Na       3.09857446       2.92729267       2.43240247
Fe       2.18919517       3.30521154       9.55226544
Ti       4.88753226       2.12460480       8.46580607
Fe       2.12329182       0.90606102       7.49798194
Fe       3.29052043       0.38200042       0.31244007
V        5.80279465       1.71347268       1.52855643
Ti       1.30037993       1.47033794       4.57390165
Fe       3.99181976       2.51788981       5.47948208
O        2.84618095       0.55322128       5.53746413
Fe       1.27758130       1.27457945       9.63112524
Fe       6.68183476       3.76718132       6.42603624
Na       3.94578489       0.11673758       3.46609007
O        4.05163881       0.05428810       8.28089858
O        4.17482537       2.42856055       0.36352367
O        1.89302205       1.01748299       2.89518271
O        5.09509675       2.02409011       3.66281427
O        2.08905008       3.21921409       4.78102616
O        6.65740295       3.76650261       1.34465550
O        3.19392092       2.86649590       7.57576421
O        5.73973819       1.73033280       6.38342417
