11
Lattice="3.7305424213409424 0.0 1.0514874458312988 1.3829830004112855 6.701186551657578 2.2522010803222656 0.0 0.0 7.144590377807617" Properties=species:S:1:pos:R:3 pbc="T T T"
Mn       2.93155328       1.48419116       4.80826093
Mn       2.13892006       6.64146580       7.63589050
Sb       0.62330335       2.73752548       5.86992260
Mn       2.18888536       1.00760621       7.45263653
Mn       3.71916803       4.47846950       9.16438590
Mn       1.45970115       2.87943906       2.88564396
Mn       1.47452573       0.31909529       2.84129351
Pd       4.37642209       5.52608709       6.83923701
Sb       1.43012760       5.80746460       3.00171769
Pd       2.96242972       4.19139583       4.71818546
Mn       3.63853302       1.78264226       2.30417592
