11
Lattice="3.2223238945007324 0.0 -0.04709026589989662 -1.611000415332811 2.7499841501303988 0.3022862374782562 0.0 0.0 38.60259246826172" Properties=species:S:1:pos:R:3 pbc="T T T"
Se       0.58617216       1.30561639      28.06451874
Se       0.02839833       0.28485655       4.23914775
Se       0.10581120       1.65653277      10.90243353
W        1.62332857       2.30590144      34.20851144
Mo      -1.03339495       2.43669931      26.87021749
S        0.05911341       1.89130761       7.54403497
Mo       0.01468704       0.55233906       1.75317406
Se       0.01861396       1.18586544      35.61785001
Se      -0.00598902       1.61790186      32.44575697
Mo       1.69021277       0.86050284       9.01925830
S        0.01555964       2.54779301       0.62960374
