12
Lattice="4.78885494441612 0.011927688621240119 0.5527100188814252 2.2882989700757492 4.095175730291904 1.1137021724096638 0.04691874637383225 0.06495238734095121 6.611826942685492" Properties=species:S:1:pos:R:3:forces:R:3 structure_index=0 total_energy=-81.93721008300781 stress="-0.039661671966314316 -0.0020687091164290905 0.0003875074035022408 -0.0020685982890427113 -0.040450140833854675 -0.0013737085973843932 0.00038725632475689054 -0.001374838873744011 -0.03283877670764923" pbc="T T T"
Zn       5.48300314       1.48612318       3.01081812       0.00205604       0.00001250       0.00174024
Zn       3.12654819       0.11712152       2.45608859      -0.00329251      -0.00175749      -0.00025890
Fe       3.65128393       1.08166852       4.82224077      -0.00613332       0.01292913      -0.02293340
Fe       6.03712724       2.43437338       5.37775299      -0.00064784       0.00924346      -0.02891830
Fe       5.00598610       0.58604087       7.25564692       0.00029724      -0.01023278       0.02544753
B        6.64282918       3.56989264       6.87329481      -0.02561654       0.01984019       0.00784140
Fe       3.05380335       2.84342461       3.01451119       0.00103563      -0.00040381      -0.00152298
Fe       2.57483194       1.97505990       7.26630788       0.00359505      -0.00636529       0.01566082
Fe       3.57974993       3.77689188       5.37407844      -0.00180031      -0.00199270      -0.02261724
B        1.93430631       0.82761635       5.76257288       0.00197954       0.00097113       0.00819479
B        4.30015126       2.19312315       6.31899699       0.03164929      -0.01999031      -0.00409708
Fe       4.90684136       3.32733488       7.81574391      -0.00312229      -0.00225415       0.02146307
