4
Lattice="4.407150127795043 0.03489414722117543 -0.023271253689038304 -0.03490374071138718 3.89598430725209 -0.01819386851713785 0.02304534841767108 0.024275220878621894 4.408822609920561" Properties=species:S:1:pos:R:3:forces:R:3 structure_index=0 total_energy=-19.6490478515625 stress="0.06990011781454086 -0.0037726890295743942 -0.0004250919446349144 -0.00377208786085248 -0.024879682809114456 -0.0017330212285742164 -0.00042491260683164 -0.001733490382321179 0.06879377365112305" pbc="T T T"
O        3.53821946       0.12825183       2.92027614       0.00546705      -0.02410386       0.00808386
Cd       1.33168656       0.58565169       2.93061845      -0.00285261      -0.00010891       0.01251798
Ba       3.50710727       2.53939014       0.70818936      -0.00131691      -0.00087322      -0.01041844
O        1.31521568       1.04666755       0.72478800      -0.00129752       0.02508599      -0.01018336
