11
Lattice="3.2274770736694336 0.0 -0.7854194641113281 -0.7914274354376976 5.930504373263974 -3.3931474685668945 0.0 0.0 6.750133037567139" Properties=species:S:1:pos:R:3 pbc="T T T"
P        0.98021793       2.38282986       1.75278120
Cr       1.04952518       4.97908797       1.91329852
P        2.27176942       5.61886687      -0.05587920
Cr      -0.24472107       3.08477557       3.64466215
Cr       2.32518883       3.29318078       0.24257301
Cr       2.51287584       0.66545676       1.13658612
Cr       0.33895128       4.49146306      -0.85762449
Cr       0.36235332       1.47683520      -0.62402023
Ni       1.43186811       1.09024028       3.59423241
P       -0.16667162       5.33708476      -2.89868447
P        1.78600463       2.86723805      -1.85657323
