11
Lattice="3.3754936571474894 -0.02055764502668823 -0.8397768668673413 -0.820271073674548 5.856754525499452 -3.4421318363461517 -0.11612735673668066 -0.07699086080909291 6.740101861012736" Properties=species:S:1:pos:R:3:forces:R:3 structure_index=0 total_energy=-89.78038024902344 stress="0.034261755645275116 0.0021359636448323727 -0.001152552431449294 0.002136075869202614 0.040805261582136154 0.005508157424628735 -0.0011534118093550205 0.005508656147867441 0.032010506838560104" pbc="T T T"
P        0.96470593       2.31573477       1.69127383      -0.00461784      -0.01016837      -0.00900590
Cr       1.01161394       4.80641525       1.81938410      -0.00615462       0.01874784      -0.03151357
P        2.32872812       5.49268548      -0.10822177       0.00234891       0.01198711       0.00587351
Cr      -0.35030442       2.96224950       3.59554445      -0.00125736      -0.01835808      -0.02294815
Cr       2.38575147       3.16770753       0.17832870       0.00667277      -0.01759209       0.02650654
Cr       2.60469238       0.64343691       1.12072410       0.00482602       0.02446220       0.01427577
Cr       0.33303963       4.39170459      -0.89840274       0.00481301       0.00195775       0.00937159
Cr       0.37387383       1.47129556      -0.66286002       0.00405357      -0.03639363       0.01174310
Ni       1.41855359       0.98370435       3.54862618      -0.00574872      -0.04752973      -0.01513408
P       -0.17160415       5.29469544      -2.95094089      -0.00370715       0.03318107      -0.00628785
P        1.84960618       2.86126796      -1.97106748      -0.00122865       0.03970610       0.01711902
