12
Lattice="4.774966716766357 0.0 -1.0158413648605347 -2.310587952422907 10.895503174128791 0.5196168422698975 0.0 0.0 11.0162992477417" Properties=species:S:1:pos:R:3 pbc="T T T"
Ba       0.36351427       0.23171366       6.89660535
I        4.33178643       2.02835572       2.26678103
Ba      -0.79871482       5.71387652       1.65520688
I        2.76360959       2.91483331       6.35780801
I        2.18262101       5.68998686       3.74380143
I        3.34688050       0.20469890       8.99322049
Ba       0.39372880       5.60251484       6.86952627
I        0.02957412       9.34885650       5.18066329
I        1.60525107       8.40516949       1.10270894
Ba       1.54382467       0.21039131       1.07587249
I        1.18392761       3.91487722      10.40869760
I        3.18149504       7.38954918       8.05280522
