19
Lattice="6.434857368469238 0.0 -0.021255021914839745 -2.233015370150043 6.501040919739341 -0.7983243465423584 0.0 0.0 6.51201057434082" Properties=species:S:1:pos:R:3 pbc="T T T"
O        0.30800402       4.24852453       1.33131466
Mn       4.22286324       1.37159086       1.16673352
Sr       3.55935955       2.87810012       4.52475471
Sr       0.89920625       0.43898303       6.37237566
Lu       1.19819585       5.55440708       4.01679242
Ho      -1.53971607       5.13610301       2.24357575
O        4.65914423       2.73220503       2.41722759
Sr       0.53393343       2.31005840       2.94838947
O        2.77768364       4.77827292       2.86500319
O        2.50158717       2.25272369       0.93330327
O        5.38705383       1.92377785       5.93090820
O       -0.74596844       4.58597409       4.24790425
Lu       2.27946160       4.60732801       0.69352418
Mn      -0.40737834       3.72235658       6.03334106
O        2.01554926       0.46335590       3.93334869
O        1.41213119       3.66833435       5.26128599
O        4.32304001       4.53512890      -0.03702580
O        5.78684182       0.32370716       1.87517129
O        1.27864800       6.31554219      -0.49460835
