19
Lattice="6.494406606008308 -0.08977496916056538 -0.013037621900721283 -2.34548785912603 6.4268882278798305 -0.8255726437403159 0.008471877602364182 -0.01858648820294417 6.559224274370649" Properties=species:S:1:pos:R:3:forces:R:3 structure_index=0 total_energy=-138.2125701904297 stress="-0.008977504447102547 0.004167119972407818 -0.0007826272048987448 0.0041663311421871185 -0.003766474314033985 -0.001394885592162609 -0.0007831159746274352 -0.0013957502087578177 -0.007947131991386414" pbc="T T T"
O        0.23585446       4.17447712       1.31268149      -0.00359254       0.00463474       0.00967639
Mn       4.23511157       1.34223520       1.16600441      -0.02369753       0.00385231       0.01085535
Sr       3.53003211       2.68236866       4.55089335      -0.00556761      -0.03134263       0.00528743
Sr       0.90459904       0.51493535       6.41971727       0.02843582       0.03840199      -0.01463679
Lu       1.11550583       5.43920016       4.04079354       0.01068576      -0.02495424      -0.03101918
Ho      -1.62647572       5.03179634       2.25701527      -0.00429226      -0.00931850      -0.00286473
O        4.68464662       2.62785707       2.43107792       0.01079701       0.00254752       0.02435991
Sr       0.51260717       2.23224105       2.93098981      -0.00185566      -0.01470515      -0.00736196
O        2.71043711       4.64108132       2.89521417      -0.00712160      -0.02945939      -0.01204935
O        2.49478751       2.17890167       0.92354917      -0.00451285       0.00906460      -0.00989310
O        5.40600849       1.80408827       5.94829074       0.00435986       0.01656908       0.01228774
O       -0.80932519       4.44805414       4.27669207      -0.00583561      -0.04579736      -0.00115535
Lu       2.26306684       4.51282690       0.67674808       0.00555713       0.01520231      -0.01960372
Mn      -0.43938080       3.76004379       6.06506302       0.00481430       0.04729384       0.00944234
O        2.03346126       0.42920018       3.99776167      -0.00832131      -0.01166955       0.03082305
O        1.34300769       3.52999743       5.32453561      -0.01683739      -0.00221002       0.02927982
O        4.36294332       4.39367877      -0.00782701       0.01905707       0.03660938       0.00812918
O        5.81984456       0.19452861       1.88642847      -0.01740097       0.00391604      -0.00120378
O        1.25718123       6.15997792      -0.54828407       0.01532811      -0.00863469      -0.04035270
