12
Lattice="5.311389419607615 0.00048695023193642107 -0.0011951520547736805 -0.0005675106967326645 7.665586732170732 0.1379643907640129 0.0021475519806395376 0.05880268846656931 9.930460334444655" Properties=species:S:1:pos:R:3:forces:R:3 structure_index=0 total_energy=-86.56849670410156 stress="-0.0021582271438091993 3.833290520560695e-06 3.9863712117949035e-06 3.824893610726576e-06 -0.0038370026741176844 -0.0011600289726629853 3.9005572034511715e-06 -0.0011600216384977102 -0.004199285060167313" pbc="T T T"
Eu       3.41528064       6.40071059       5.27625357      -0.00037064       0.02721417       0.02481672
Eu       3.41660275       5.36139948       9.01989532      -0.00128049      -0.00640581       0.00486433
Eu       3.41615926       2.69020015       6.10870490      -0.00124220       0.00192635       0.00805059
Eu       0.76015040       0.30232260       7.58144605       0.00100425      -0.01228739       0.00383236
Tl       3.41506690       4.79949450       2.44656047      -0.00076244      -0.01091907      -0.03631795
Eu       3.41503594       1.55110557       2.58697249      -0.00038597      -0.01929869      -0.01886170
Tl       0.75961102       4.56727550       7.04086250       0.00128301       0.00315468      -0.01103815
Eu       0.75862713       6.75584975       1.64248333       0.00050562       0.01501140       0.04476642
Eu       0.75841758       3.02605545       0.44368478       0.00065738      -0.00917553      -0.01780000
Mg       0.75928127       4.02756795       3.98858555       0.00076142      -0.00028832      -0.01312333
Tl       0.75970377       0.99992316       4.38290077       0.00030224       0.00692378       0.02299416
Tl       3.41647839       1.10924755       9.29995925      -0.00047219       0.00414444      -0.01218341
