3
Lattice="4.196676463076456 -0.0001677337586622756 -1.31351609254781 -0.4095544693216511 4.177948422486382 -1.3138227239008127 -0.00047577111985307706 -0.0005671282835671121 7.355788426270362" Properties=species:S:1:pos:R:3:forces:R:3 structure_index=0 total_energy=-22.45966339111328 stress="-0.056551311165094376 0.00692393584176898 0.007511437870562077 0.006923936773091555 -0.05291762202978134 0.008816220797598362 0.007511508651077747 0.0088162487372756 -0.04066735878586769" pbc="T T T"
Eu       1.93691023       3.17205045       2.26190955      -0.00442665      -0.00671679      -0.01659863
Eu       0.67450480       1.77721632       5.58665522       0.00322406       0.00518446       0.01323497
Ca       3.60814735       0.38464677       0.24408502       0.00120259       0.00153233       0.00336366
