11
Lattice="3.5981061458587646 0.0 0.005185582209378481 -0.3344194500395365 5.845839570776307 -3.551621675491333 0.0 0.0 6.974876880645752" Properties=species:S:1:pos:R:3 pbc="T T T"
As       0.80109560       5.58967370      -0.92618544
Mn       2.64415852       4.82113671      -2.30816855
As       2.77353679       2.60436936       4.45792747
Mn       1.06892588       0.91843536       0.48518803
Mn       0.91289324       3.62914818       2.56980052
Mn       1.06513782       0.92273135       4.73444086
Mn       0.93835211       3.20953820      -0.89397795
Mn       2.64178419       4.81129190       0.47423336
As       2.59135182       5.69096985       2.57328586
Mn       2.84939023       1.29927530       2.59509245
As       2.76603737       2.60604971       0.72779026
