12
Lattice="4.071242809295654 0.0 -0.04302919656038284 -0.09741726162821716 7.242885182493721 -0.12277892231941223 0.0 0.0 10.362232208251953" Properties=species:S:1:pos:R:3 pbc="T T T"
Te       1.48040846       2.12117662       9.51827372
Ge       1.44631770       4.53478641       0.87778508
As       3.49932756       3.40317475       2.49490256
Te       1.44658479       4.71624907       5.88198257
Ge       1.47756867       2.29776203       3.97600904
Te       1.41450191       7.00031274       2.51062548
Hg       3.49159360       3.40364316       7.63475317
Te       3.46925562       5.91502028       9.34501583
As       3.45960545       5.77514939       4.09344229
Ge       3.52886968       1.02194167       0.81019871
Te       3.54198280       0.88211740       5.92129663
As       1.41132974       7.03842147       7.57809052
