12
Lattice="4.184179326507979 0.03272788639313609 0.011380254878633632 -0.043193734902472976 7.416035306608015 -0.09035628760854783 0.1395652455924832 0.04999715293997488 10.464503056026349" Properties=species:S:1:pos:R:3:forces:R:3 structure_index=0 total_energy=-43.55405044555664 stress="0.005058742128312588 0.0016504778759554029 -0.0004962843959219754 0.0016501975478604436 0.006381149869412184 0.0004768201906699687 -0.0004967004642821848 0.00047695249668322504 0.007138322573155165" pbc="T T T"
Te       1.67965539       2.21855511       9.71752380       0.01267057      -0.02149485      -0.01094799
Ge       1.32600415       4.65202065       0.89019057      -0.03135258       0.02881982       0.00581640
As       3.73300320       3.72753285       2.70374881       0.00209682      -0.01136455      -0.00063213
Te       1.59708154       4.80956181       5.87782732      -0.00867099      -0.00209183      -0.01251081
Ge       1.53734765       2.61724048       3.99871238      -0.01797238       0.00163011       0.00891660
Te       1.54516341       7.21980119       2.50792826      -0.00185075      -0.02447060      -0.01117745
Hg       3.71636202       3.52179780       7.78575152      -0.00398316       0.00502554       0.00444248
Te       3.81903909       6.04299277       9.56995311      -0.00006758       0.00158343      -0.00782505
As       3.68742388       5.81125271       4.10161912       0.01606305      -0.00804147       0.00141329
Ge       3.65953038       0.85557217       0.80173972       0.00403407       0.00761211       0.00363050
Te       3.81557298       0.97700460       6.22035341       0.03381867       0.00148199      -0.00216815
As       1.58432797       7.34831414       7.69724785      -0.00478587       0.02131031       0.02104228
