7
Lattice="4.831066608428955 0.0 -1.669981598854065 -2.358460735727505 4.209930366445691 -1.658891201019287 0.0 0.0 5.0887861251831055" Properties=species:S:1:pos:R:3 pbc="T T T"
O       -0.74606841       2.55775143       2.16493298
Eu       2.84882812       0.45564683      -0.38232593
Eu       1.67629126       2.56170598       1.33509629
O        1.66684718       2.56380482      -1.20983280
Eu      -0.73789793       2.55746417      -0.37535643
O        0.43763794       0.45235201       0.45073453
O        2.84749519       0.45798760       2.16513286
