10
Lattice="4.910707950592041 0.0 2.6462275981903076 1.5823247892499799 4.646612031214003 2.64986515045166 0.0 0.0 5.581044673919678" Properties=species:S:1:pos:R:3 pbc="T T T"
Mo       5.10317791       4.38393435       5.19990195
O        0.43707458       0.47311959       5.44714385
O        2.88266548       1.23017809       3.66685998
Eu       5.14527612       0.90089168       5.27328134
O        5.73216886       2.88852307       9.65976698
Cu       1.85786162       2.06113462       5.34471961
Eu       3.48352120       3.22426797       8.06962759
O        3.11196765       0.81783951       6.53179290
O        3.27081903       3.65030172       5.22745004
O        5.50951631       3.29593406       6.79175015
