20
Lattice="3.535606101084849 0.015060423045086774 0.5166205833007589 1.255372120781594 7.520293406479506 3.2810240335300027 0.06765929280807544 0.10054300766699492 11.6652030454198" Properties=species:S:1:pos:R:3:forces:R:3 structure_index=0 total_energy=-197.25193786621094 stress="-0.006855156738311052 -0.0005085605662316084 -0.0002658312732819468 -0.0005081582930870354 -0.005393421743065119 0.00012241152580827475 -0.0002653090632520616 0.00012204355152789503 -0.005937574431300163" pbc="T T T"
Gd       3.01197418       1.57900777       1.84810992       0.00826278       0.00091140      -0.00002470
O        3.34645976       5.47503712       8.42185820      -0.01307436      -0.01619832      -0.02650255
O        0.43086955       0.30772568       5.39299510      -0.00697233      -0.00585742      -0.00019690
Eu       3.28559057       4.66281679      12.21796212      -0.00280630      -0.00070693       0.00209309
Eu       1.83560810       0.20539563       9.97253866       0.01062896      -0.00127709       0.00109211
O        2.90998124       5.44774334       2.69277450      -0.00076041       0.00009656       0.00256151
H        3.86257541       4.26077082       6.82561632       0.01235150       0.01538538       0.04272726
O        3.70748127       7.12355949       5.98365444      -0.01390105       0.00585823      -0.00946139
O        2.08240563       1.93748561       8.13080571       0.00169726      -0.00350256       0.00121024
Eu       1.01575153       4.24918231       3.41075025      -0.00365119      -0.00025323       0.00455670
Gd       1.77359880       6.30896110       6.90034371      -0.00843300       0.00223796      -0.00877403
O        1.59337318       6.49597590      11.72062558       0.01592837       0.00176695       0.00041568
Eu       3.67696440       3.18939954       9.29685357      -0.00254963      -0.00562825       0.00349559
Ni       1.92535137       6.10616636       9.82874459       0.00877445       0.00050069      -0.00181992
O        1.69090641       4.18435230      10.30898167      -0.00445622       0.00450996      -0.00340343
O        1.20373173       3.99865980       5.93870747      -0.00878286      -0.00478020      -0.00355516
O        3.44837157       1.39496170      11.21693851       0.00707435       0.00440001      -0.00289612
Gd       2.14139655       1.66635380       5.89818164      -0.00945175       0.00292754      -0.00022231
O        1.38597258       3.04220867      13.07862504       0.00806826       0.00334385      -0.00075556
O        2.79286309       2.59442360       3.98136994       0.00205314      -0.00373475      -0.00054005
