4
Lattice="2.613893438172092 0.0027946141461280658 0.2424868440932469 -0.0047478258534217055 3.8719374135442886 0.00659961300818262 0.6816133958470906 -0.012052693391858526 6.932493000581816" Properties=species:S:1:pos:R:3:forces:R:3 structure_index=0 total_energy=-15.278934478759766 stress="0.03575723245739937 6.104820204200223e-05 0.0015558149898424745 6.11175928497687e-05 0.020611967891454697 -0.0004758099385071546 0.0015552113763988018 -0.0004757677670568228 0.03297370299696922" pbc="T T T"
Ga      -0.04293714       0.73592484       1.75923506      -0.04911768      -0.00012692      -0.00239537
Cu       0.88350916       2.66734703       5.07726860       0.01178483      -0.00019004       0.00239922
Si       2.26007571       0.73406675       4.45971421       0.03091406       0.00008174       0.00420958
Ga       1.33377121       2.67572868       0.48541447       0.00641877       0.00023522      -0.00421342
