5
Lattice="3.9372438373085035 -0.0008923596712070898 -1.5558593810344599 -0.616952657724251 3.887769481735191 -1.562660112730936 -0.0016229562151307158 0.009445580172104366 5.754969623651023" Properties=species:S:1:pos:R:3:forces:R:3 structure_index=0 total_energy=-35.236637115478516 stress="0.06365875154733658 -0.0017935313517227769 -0.003096622182056308 -0.0017934059724211693 0.07173430174589157 0.002316397149115801 -0.003095489228144288 0.0023162667639553547 0.048310451209545135" pbc="T T T"
Ce       1.44466831       3.77698591       2.89324612      -0.00164393       0.00458263       0.00279114
Si       0.86004268       0.76630065       1.41505249      -0.00912092       0.04389023      -0.01682464
Si       0.05779228       2.14610488      -0.61301379       0.00311771      -0.02959093       0.01325373
Ir       3.19683748       1.21664793       1.56824673       0.00191303      -0.00683815       0.01100871
Si       2.51531677       2.72499554      -0.14711565       0.00573421      -0.01204380      -0.01022894
