10
Lattice="5.344378772213462 0.004059229809942477 -0.05636234672261718 -2.6987551059248984 3.9149213132692835 -2.4844198067761174 0.03929543204545397 -0.023505649794636724 5.666906246189229" Properties=species:S:1:pos:R:3:forces:R:3 structure_index=0 total_energy=-72.73210906982422 stress="-0.05146638676524162 -0.005805135704576969 -0.00919666700065136 -0.005806379951536655 -0.033091217279434204 0.00041170584154315293 -0.00919098686426878 0.00040896929567679763 -0.0402199812233448" pbc="T T T"
Fe       3.44608754       1.16828852       1.01957405      -0.03573437      -0.01342961       0.01883076
Fe       0.78038827       1.15818416       3.89599808       0.01192019      -0.01056480      -0.01811086
W       -1.92764878       3.46621947      -1.06632647      -0.02583466      -0.00165445       0.00260693
Mn       0.77121522       3.37201816       1.63080893      -0.00478836       0.01550051      -0.00983310
O        1.53131693       1.38134375       1.75451860      -0.02318738       0.02774698       0.00390670
O       -0.24335174       3.01566822       3.69573798       0.02427208       0.00013342      -0.01097673
O        5.14394497       0.19231157      -0.18665574       0.02255303       0.01296628      -0.00337660
O       -1.12168640       3.04759887       0.72171560       0.01445805       0.00389581       0.02458334
O        2.67192582       1.68739235      -1.11194688       0.02411518      -0.01639330      -0.00143059
O        4.59148367       0.25357150       2.48428880      -0.00777373      -0.01820096      -0.00620016
