15
Lattice="4.579323504521072 -0.38724439847349384 1.4890361746252814 1.2489310448598399 5.810956323275503 2.4465816340954714 0.2696816325727925 0.35110538857041146 6.280975616115223" Properties=species:S:1:pos:R:3:forces:R:3 structure_index=0 total_energy=-101.07936096191406 stress="-0.012146079912781715 0.010918231680989265 -0.0002578847052063793 0.010918832384049892 0.0014969786861911416 -0.0006862031295895576 -0.00025735434610396624 -0.0006861159927211702 -0.0009751246543601155" pbc="T T T"
Fe       1.82311304       2.31523192       5.58501781       0.00202205      -0.00053634       0.01655245
Fe       5.02913861       3.53479246       8.88190137      -0.01932096       0.00926676      -0.01964568
Zn       0.58909444       0.59304044       4.10884272       0.00489350      -0.00307660       0.02879759
Fe       1.17978702       5.32296283       2.64960302      -0.00082721      -0.00301780      -0.00856643
Fe       4.23777745       2.53816632       4.98058179       0.00697498      -0.02004979      -0.01290236
Fe       3.85010365       1.80143302       7.39459170       0.01275616       0.01527309       0.03576517
Zn       3.11308020       0.73266041       3.55051190      -0.01487462      -0.02251541      -0.01435301
H        2.09559794       2.90920278       7.47416702      -0.02636927       0.03577624      -0.00339509
Fe       5.42487417       4.25409667       6.51701336       0.03160784       0.01935767      -0.01256998
Fe       3.93599305       5.82673206       8.47908312      -0.00043330       0.01365671       0.00393056
Fe       2.25510281       3.08316895       2.96275224       0.01244554      -0.00887445       0.00471549
Fe       1.03859468       1.12624642       1.64882553       0.00396417       0.04692693      -0.01702701
Fe       3.29738521       4.75845009       4.50962516       0.00242203      -0.01675359       0.00937068
Fe       3.04327364       4.20510378       6.88811694      -0.03469975      -0.03980044      -0.00112240
H        1.14140914       3.14506837       4.26588023       0.01943890      -0.02563306      -0.00955003
