4
Lattice="3.4240806167461955 0.007595781402285791 -1.5731116734063246 -0.732368090615353 3.3412085390781128 -1.5805903431863448 -0.008915538413484227 0.0001986266050434643 4.504722026316185" Properties=species:S:1:pos:R:3:forces:R:3 structure_index=0 total_energy=-22.04543685913086 stress="0.018546635285019875 -0.043145760893821716 -0.05034779757261276 -0.043146148324012756 0.00893283262848854 -0.04552726075053215 -0.05034826695919037 -0.04552721604704857 0.10893093794584274" pbc="T T T"
Ni       3.22090766       0.57932573       0.10722747       0.00487761       0.00375610       0.00332591
Sb       2.17747939       1.41321133       2.35676918       0.00880568      -0.00294336       0.01330769
Ni       0.10197808       3.08061039       2.35675817      -0.01082311       0.00073104      -0.01008224
Ni       1.14417292       2.24688564       0.10520448      -0.00286018      -0.00154383      -0.00655136
