10
Lattice="4.2810444831848145 0.0 0.007431395351886749 -0.01326719251029057 4.282026718613572 -0.001381491543725133 0.0 0.0 10.574553489685059" Properties=species:S:1:pos:R:3 pbc="T T T"
Al       1.60160519       3.69820438       1.01989161
Al       3.75064279       1.55718834       3.66544263
Al       1.60868224       1.55777677       7.62847328
Eu       3.74999612       1.55671591      10.27912486
Cu       1.60927665       1.55736866       2.34001495
Cu       3.74984184       1.55775316       6.23904764
Eu       1.60257223       3.69826155       4.97798287
Pd       3.74324262       3.69870999       2.34361287
Al       3.74449461       3.69883454       7.63192511
Cu       1.60418189       3.69762884       9.01590122
