16
Lattice="5.582971572875977 0.0 -0.09916245937347412 -1.9153524848752574 6.114188321393648 0.8308637142181396 0.0 0.0 9.80448055267334" Properties=species:S:1:pos:R:3 pbc="T T T"
Gd       2.25533170       0.10048894       2.31266480
Li       1.55856617       5.24490057      10.03892665
Li       1.75779326       4.14681202       4.67886506
Gd       0.53562609       1.63184991       9.14661814
Li       4.16130548       4.48641861       9.98330597
Gd       3.24712273       2.98576586       7.18012039
Li       4.97793667       0.34664131       4.68297049
Pd       3.15045843       5.75566797       2.52258141
Li       2.41819223       3.37043308       2.06231675
Pd       3.35521029       1.77118179       9.92439059
Pd       0.48121868       2.41392041       6.29201312
Pd      -1.20389898       4.33084063       4.87573155
Eu      -0.45267818       2.51818407       2.80003650
Gd       0.16496943       5.63458768       7.06241488
Pd       2.66047333       1.83842533       4.48338593
Pd       2.96338942       5.96356446       7.96522191
