9
Lattice="4.212806701660156 0.0 0.0007024016231298447 -2.1081746259931715 6.0171604885130545 -1.2093775272369385 0.0 0.0 6.363283157348633" Properties=species:S:1:pos:R:3 pbc="T T T"
Eu       2.58038430       1.96459464       0.19480612
Al       0.47056670       5.93069949       1.68693858
Al       0.47049604       2.69235414       4.34731757
Ni       0.46833627       3.51414828       2.12071498
Fe       0.47185642       1.10502419       2.46127692
Eu      -1.63717257       5.15324660       4.25562157
Ni       0.46958810       4.27431887      -0.18742972
Ni      -1.63567286       4.68583326       1.25439405
Ni       2.57644641       2.35154057       3.04617913
