6
Lattice="2.8544419774949885 0.0015008583773681527 0.001251653509291375 -0.0024405465616000144 4.291633655625989 -0.0037954980368227176 -0.0019991567584642608 0.004023352739355058 4.586294500781939" Properties=species:S:1:pos:R:3:forces:R:3 structure_index=0 total_energy=-49.08872985839844 stress="-0.03573483228683472 -0.0004636055091395974 0.0004579004307743162 -0.0004635314689949155 -0.029275426641106606 -0.00038455435424111784 0.00045859289821237326 -0.00038218797999434173 0.007775256410241127" pbc="T T T"
Fe       0.48036404       2.38004140       2.17944541      -0.00037262       0.03281511      -0.02034283
Co       0.48203973       0.29400440       0.73878027       0.00041031      -0.01673114       0.04634771
C        1.90842283       1.30233526       1.45253126       0.00032679      -0.01098594      -0.02619126
Fe       1.90647162       2.44780902       4.47323082       0.00038578      -0.03292628      -0.02071184
Co       1.90847639       0.23966703       3.03260696      -0.00021260       0.01637825       0.04671329
C        0.47905132       3.52416070       3.74304435      -0.00053748       0.01145031      -0.02581497
