16
Lattice="4.250293731689453 0.0 0.004195080604404211 -2.1059266622909685 5.489213189111036 -1.8919607400894165 0.0 0.0 7.967526912689209" Properties=species:S:1:pos:R:3 pbc="T T T"
Mn       1.03898095       1.89292705       1.38807046
Mn       3.16681330       1.77299827       7.03702576
Mn       1.03466466       0.44267798       3.24072643
Mn       1.04434608       4.60741976       5.60368852
Mn      -0.00471715       5.27146139       3.48967699
Fe       1.03956940       3.06975478       3.47211756
Mn       1.04229496       1.98014248       5.40752856
Mn       1.03510399       0.51542691       7.52174885
Mn       1.03740941       3.13887766      -0.50850234
Fe       3.16032808       0.55628707       1.42925377
Mn       2.10891758       5.26828477       3.48767804
Mn      -1.07759013       3.27813639       1.82245210
Fe       1.04880040       4.53369996       1.37274282
Mn      -1.08724650       3.47626215       5.04769125
Mn       3.17442035       1.54855329       3.79944911
Mn      -1.08067259       4.46440203      -0.56692912
