12
Lattice="5.310337849209323 0.0004859143733561379 -0.0011820622891872887 -0.0005689982315295837 7.66519665592158 0.1367730889920475 0.002173288988436255 0.05717782294916365 9.933605883908466" Properties=species:S:1:pos:R:3:forces:R:3 structure_index=0 total_energy=-86.56922912597656 stress="-0.0033222625497728586 4.3927025217271876e-06 4.4005450945405755e-06 4.380431164463516e-06 -0.005180979613214731 -0.0010546442354097962 4.402205831866013e-06 -0.0010547018609941006 -0.004377354402095079" pbc="T T T"
Eu       3.41462292       6.40069078       5.27855262      -0.00033352       0.02062817       0.01876783
Eu       3.41588683       5.36116113       9.01927432      -0.00109640      -0.00871537       0.00785950
Eu       3.41545668       2.68621298       6.11180091      -0.00110546       0.00368344       0.00649886
Eu       0.76006830       0.29822479       7.58603560       0.00083546      -0.01240227       0.00465764
Tl       3.41435884       4.80004624       2.44314858      -0.00066156      -0.00971592      -0.03263637
Eu       3.41434434       1.55073047       2.58793171      -0.00030181      -0.01425748      -0.01726917
Tl       0.75955026       4.56265331       7.03375984       0.00110301       0.00859780      -0.00033078
Eu       0.75850107       6.76205113       1.64989301       0.00042548       0.00387654       0.03485388
Eu       0.75829602       3.02673322       0.44137622       0.00056222      -0.00574643      -0.01766603
Mg       0.75916363       4.02478662       3.98665698       0.00066429       0.00078700      -0.01566652
Tl       0.75956562       0.99867990       4.38834735       0.00025807       0.00813977       0.02224945
Tl       3.41578803       1.10741104       9.30389925      -0.00034977       0.00512475      -0.01131825
