16
Lattice="2.9173287500132097 -0.0015586652640091042 0.5143605138859259 1.0701584458189397 7.242385886579806 2.4269191343453342 0.006242504719070314 0.07326564879104548 8.46969063376725" Properties=species:S:1:pos:R:3:forces:R:3 structure_index=0 total_energy=-103.17269134521484 stress="0.023542530834674835 0.0008887996664270759 0.00039610976818948984 0.0008869903977029026 0.01907564513385296 -0.0039685689844191074 0.0003956298460252583 -0.003969224635511637 0.021851850673556328" pbc="T T T"
Fe       2.25884054       2.66432835       3.27665155      -0.00778738      -0.01026276       0.03937823
Mn       2.43396939       7.34097507      10.75251759      -0.00086153       0.01920676      -0.00206876
Fe       0.40292366       1.17959237       5.26544493      -0.00500426      -0.02083099       0.02617648
H        1.05475663       4.85222691       1.57128019       0.00258347       0.04190665      -0.00658181
O        1.16024488       5.77442975       9.47738647       0.00287425       0.04519039      -0.00717211
O        2.93363273       4.01441051       7.93842487       0.00258878       0.00064649      -0.01309109
H        2.94862215       3.02695235       7.85476780       0.00423770       0.00492784      -0.02534268
Fe       1.48327729       5.26023033       7.63749866       0.00662092      -0.01137957      -0.03330988
O        0.79198209       0.95799095       3.06181001       0.00261137      -0.02190435      -0.01326582
O        2.97734637       1.14648783       7.70802261      -0.00454321       0.03375511       0.02505180
Mn       3.33920741       6.80718984       5.63902493      -0.00173942      -0.00467589       0.01061609
O        2.99340307       6.86620091       7.60021829      -0.00377879      -0.03990936       0.02286403
O        1.84383740       5.61435615       5.58692525       0.00342108       0.00512609      -0.01894775
O        1.92298172       2.39387070       5.17832745      -0.00029512      -0.04832894       0.00164189
O        3.66812520       6.85266172       3.77446423       0.00113711       0.00376774      -0.01465172
O        0.90972682       3.57926654       2.40095144      -0.00206508       0.00276467       0.00870282
