11
Lattice="3.9964406490325928 0.0 -1.21122145652771 0.08795081566502798 4.631198288972461 0.265434592962265 0.0 0.0 7.171627521514893" Properties=species:S:1:pos:R:3 pbc="T T T"
Ge       0.93081085       2.22651088       2.04494316
Fe       1.37605115       4.42235341       3.49949936
Fe       0.23285226       2.73464434       6.93015033
Fe       1.69322818       1.92350991       4.55972909
Fe       2.83436865       3.61058618       1.13054309
Ge       2.13762119       4.11483226       6.01015615
Fe       3.84215199       0.69875180       4.45202089
Ge       3.53212005       3.17648007       3.42189264
Fe       2.42376518       1.55932427      -0.21363116
Fe       0.55571377       0.14557849       0.83234072
Fe       3.13555338       1.01851279       2.13004554
