12
Lattice="5.2797465324401855 0.0 -1.9043446779251099 -2.9038691225588313 4.566799092911268 -1.5353503227233887 0.0 0.0 5.64378547668457" Properties=species:S:1:pos:R:3 pbc="T T T"
O        0.35770054       1.51346758       0.70584642
Fe       1.37784386       1.81515183      -0.89136775
F        2.66667596       2.12044695       3.03967536
Cr      -0.54091921       2.81949208       1.87464113
O       -0.89173181       4.10536428       0.39615058
Cr      -2.46763915       4.16441359      -0.68800330
O       -0.11340017       1.78950371       3.53517659
Fe       3.49598972       0.78125462       1.68969670
O        3.06487665       1.81301567       0.11204683
F        1.56533662       3.86583022      -1.04114648
F       -1.41395988       4.28812428       3.21784619
F        1.14690285       4.07769606       1.86321724
