12
Lattice="3.866727590560913 0.0 -0.0011322619393467903 -1.9408731617905783 6.499956128920551 0.452981173992157 0.0 0.0 6.313254356384277" Properties=species:S:1:pos:R:3 pbc="T T T"
Eu      -0.95567749       4.59093232       2.89916340
Eu       0.98089964       2.71124956       0.28100037
Eu      -0.95855305       5.94752935       5.88936285
Fe       2.91471041       1.74004069       4.18725208
O        0.98214110       1.67382757       4.39257441
O        2.91113845       2.35628241       2.23221581
O        0.98137784       6.14956547       3.97544944
O        2.91947597       0.97285699       6.05467553
O       -0.95453126       3.66819180       5.14068521
Fe       2.91677976       0.41345390       1.65195293
O        0.98411421       0.26413301       1.42323519
O        0.97744758       4.81661818       1.33222697
