16
Lattice="5.232246398925781 0.0 0.00046382815344259143 -1.6479373493888547 4.954688341774271 -0.009898564778268337 0.0 0.0 6.126092910766602" Properties=species:S:1:pos:R:3 pbc="T T T"
Mn       0.26083028       4.21353121       2.56958041
O        2.09618414       2.99692093       2.46757398
Mn       2.88258829       4.16416456       0.98452544
O        0.15498996       0.63496277       2.70214019
O        2.87682454       0.33732017       0.92740310
Mn       1.06287251       1.74069789       4.15973063
Li       1.06220062       1.70384428       1.01457379
Li       2.89153265       4.22800888       4.13356296
Li       3.66844678       1.69846409       5.64116901
Mn       0.26800786       4.17005077       5.63405229
Mn       3.68653168       1.74757476       2.57900030
O       -0.51491242       2.95984382       4.20320714
O       -0.76672201       2.95140671       1.10967070
O        2.72997238       0.65191163       4.03535034
O        1.82868086       2.97119978       5.54553609
O        0.28004525       0.31008867       5.74310493
