11
Lattice="3.9228367805480957 0.0 0.0007639499381184578 -1.9655926639488541 3.3878413578677593 0.0014808813575655222 0.0 0.0 13.924593925476074" Properties=species:S:1:pos:R:3 pbc="T T T"
Gd       2.59343811       1.28337490      13.22041805
Mn       2.59842720       1.27912546       9.93195332
Mn       0.62977971       2.40828822       3.39358223
Mn       0.63492551       0.15194403      10.81824989
Mn       0.63743440       0.14801129       4.09536620
Mn       2.59495597       1.27894564       2.68267316
Mn       0.63436006       2.41022818      11.42565437
Al       2.59487983       1.28267127       5.19589530
Al       0.63669247       0.14573475       1.57667965
Gd       0.63706711       0.14792476       7.48975443
Mn       0.63477718       2.40805802       9.31208116
