8
Lattice="4.187229156494141 0.0 -0.0002043380809482187 -0.0008613204366720249 4.519014276437022 -0.0054535456001758575 0.0 0.0 5.157581329345703" Properties=species:S:1:pos:R:3 pbc="T T T"
Mn       4.02987059       4.17290728       4.71409895
Mn       1.93477902       3.42513142       3.42743196
Mn       1.93320153       1.13376318       4.72630750
Ge       1.93495416       3.40192521       0.84733934
Mn       4.02900023       1.88571766       0.85073388
Ge       4.02911318       1.90200349       3.42990660
Mn       4.02946008       4.17790703       2.13832478
Mn       1.93378743       1.12517293       2.13693578
