10
Lattice="6.051039218902588 0.0 -3.475797653198242 -1.988542187761525 5.716322826407948 -3.4787704944610596 0.0 0.0 6.985586166381836" Properties=species:S:1:pos:R:3 pbc="T T T"
Gd       0.88908618       2.89128752      -0.82514714
Gd       1.88571653       0.03000657       4.40445480
Gd       3.91992155       2.89213659      -2.56738558
Gd       4.91680695       0.02862690      -0.82715131
Gd       3.91794639       2.88911781       0.93227134
Gd       1.88503465       0.02685587       0.91768281
Pb       0.89349425       2.89088070       2.66855910
C        2.90307894       1.45912023      -0.82607069
Pb       4.91331944       0.03043354       2.66756527
N       -1.11765352       4.31802646      -0.82801984
