12
Lattice="4.899550437927246 0.0 0.0002801403752528131 -0.0017189268595040332 7.916818909001929 -5.602779856417328e-05 0.0 0.0 9.615492820739746" Properties=species:S:1:pos:R:3 pbc="T T T"
Au       3.99526380       3.49932552       5.85832990
Au       1.54757017       3.56543579       1.04546502
Eu       3.99420128       5.67601050       0.49122428
Eu       1.54367441       4.36438268       7.62110195
Eu       3.99488446       2.70432141       2.81906103
Au       1.54421481       7.52252422       7.99283630
Eu       1.54458415       0.40440276       1.41712933
Eu       3.99322661       1.71826557       8.54486971
Eu       3.99285448       6.66964554       6.22073118
Au       3.99188379       7.46572742       3.18429117
Eu       1.54265796       5.36315224       3.73423163
Eu       1.54462244       1.39486223       5.30151908
