8
Lattice="4.094390869140625 0.0 0.016214238479733467 0.02412730904269624 5.644210745571443 0.03688986971974373 0.0 0.0 8.710049629211426" Properties=species:S:1:pos:R:3 pbc="T T T"
Eu       3.64586412       2.97740647       8.51001746
Cu       1.60357027       4.39366628       1.85954961
Cu       1.59074532       1.57284570       1.84143983
Eu       1.59090982       0.14758497       7.54617860
Eu       1.59124859       2.99677895       4.85556130
Cu       3.63619780       0.15851875       1.09248098
Eu       3.62885424       0.16496684       3.90282922
Cu       3.64108645       2.98585367       2.61306459
