14
Lattice="5.276716232299805 0.0 0.03312133625149727 0.15975257624492875 5.304795045672602 -0.002905441913753748 0.0 0.0 5.80236291885376" Properties=species:S:1:pos:R:3 pbc="T T T"
Mn       3.12099384       2.70091118       3.50382737
Mn       2.95850521       0.06613194       4.95590236
Mn       2.95741256       0.06523647       2.05392540
O        1.88776800       0.79776440       0.60370130
Li       0.80393841       4.50285711       3.49778502
O        2.12977029       3.68515927       2.10765213
O        4.18777542       4.64139662       3.50251939
Mn       2.95747873       2.73501727       0.60257089
O        3.94497675       1.74791713       1.99649226
O        1.90247136       0.76777644       3.50526120
Li       5.27727502       0.92769234       0.61082942
O        4.17526849       4.66645773       0.60332140
O        2.13036580       3.68691861       4.89524375
O        3.94828002       1.74930560       5.01192291
