11
Lattice="4.008002856589672 -0.0008416288905555591 0.000695662747146488 0.003022214380522058 7.090548827391864 -1.208568915612933 -0.0009442873645345461 -0.006423279667777953 7.688194421137721" Properties=species:S:1:pos:R:3:forces:R:3 structure_index=0 total_energy=-94.44800567626953 stress="0.011169799603521824 3.443293826421723e-05 0.00022787402849644423 3.4851080272346735e-05 0.029133491218090057 0.0050865886732935905 0.00022804326727055013 0.005087080877274275 0.01457529328763485" pbc="T T T"
Eu       1.26928158       1.82822612       6.72426000      -0.00057886      -0.00055256      -0.00004934
Eu       1.27279589       6.98717000       1.65431014      -0.00138606       0.00468502      -0.03948107
Mn       3.27602357       6.54906375      -0.89980750      -0.00057599      -0.02315806      -0.00610374
Mn       3.27458512       4.20321191       5.45237513      -0.00089307       0.02313432       0.00581823
Mn       1.27201018       5.86179654       5.11446029      -0.00089287       0.00239806       0.01830646
Ge       3.27344001       1.85407727       1.48200091       0.00036987      -0.01969980      -0.00518206
Eu       1.26894131       3.76520500       2.89750723       0.00252250      -0.00295945       0.04002000
Ge       3.27361859       1.80740704       4.27902994      -0.00031070       0.01898016       0.00533396
Mn       3.27324074       4.16242257       0.39915087       0.00267439       0.00185528       0.00413755
Mn       1.27024826       4.89150655      -0.56251519       0.00121880      -0.00318833      -0.01884188
Mn       3.27680558       6.58970434       4.15336986      -0.00214796      -0.00149479      -0.00395820
