9
Lattice="4.223297595977783 0.0 -0.009745102375745773 -0.04221409093160061 7.197670169531481 -4.199118137359619 0.0 0.0 8.343026161193848" Properties=species:S:1:pos:R:3 pbc="T T T"
Gd       3.81990712       5.08298741       4.34094337
Gd       1.69405962       6.84358771      -1.72970970
Gd       1.71295041       4.01025062       1.69263616
Gd       3.84056612       1.39731913       0.18039980
Gd       1.72064366       2.49361718       5.85813338
Pb       3.83568658       2.04864584       3.32992160
Gd       3.80911407       6.84916447       1.29092302
Si       1.69660806       6.84181588       3.32779002
Pb       3.82104942       4.44648079      -0.84257476
