20
Lattice="7.172213811802054 -0.19983362313456357 -0.5937918050944828 -2.2797873377342435 7.316882069656262 -1.223599622325451 0.344896615145091 0.21897423380752798 11.382865859990968" Properties=species:S:1:pos:R:3:forces:R:3 structure_index=0 total_energy=-79.83369445800781 stress="-0.003504650667309761 -0.0009458634303882718 0.0003882825840264559 -0.0009457533014938235 -0.001775671960785985 0.0005392114981077611 0.0003886250779032707 0.0005393216270022094 -0.003076540306210518" pbc="T T T"
O       -1.39541383       6.64899250       2.33393799       0.03231781      -0.02467120       0.02163183
Co       0.69055780       5.86697846      10.05407183      -0.01692060       0.02240739      -0.00342655
Cu       1.15672841       1.43612937       7.63850452      -0.01362519       0.01600026      -0.00661214
Cs       4.15643759       4.13821165       8.99396174      -0.01772911       0.00484451       0.01658403
Cs      -1.73655052       5.34269780       4.97491137      -0.02371405       0.00698344       0.01739021
I        5.03573659       1.40781137       4.15371778       0.01824003      -0.01403211      -0.00258703
O        1.58735811       2.23964822       2.94182562       0.02319393      -0.02911370      -0.01488167
O        1.86962279       0.67217414       6.03891311      -0.00127570       0.00618457       0.00814462
O        4.33198021       3.70219557       1.56786239       0.01574147      -0.01246493      -0.00245249
Cu       1.48079432       0.94991455       4.21489867       0.01966110      -0.01198784       0.00309879
Cu       3.70488739       0.71264627       6.35974365       0.00049424       0.00869221      -0.01072046
I        0.51778941       4.05404082       7.80540323      -0.01553417       0.01342810       0.00041594
Cs       6.30946544       0.87635639       0.55984839       0.00443696      -0.01419789      -0.00084168
O       -1.02899166       5.20929755      -0.28146725      -0.01984316       0.02549513      -0.00986135
I        5.77398685       0.22085195       7.78325597      -0.01127622       0.01574577       0.00667238
Cu       5.32000018       4.97963975       0.77748127       0.01030929      -0.00596404       0.00418032
Cs       1.51617765       5.30651148       1.96526703       0.00739911      -0.01980492      -0.01147191
Cu       3.31312732       2.58580510       2.54792555       0.02136189      -0.01834089      -0.00541649
O        1.99801002       5.78643673      -0.92482137      -0.01686299       0.01642160      -0.00227548
I        2.34580801       0.90748958      10.02419363      -0.01637456       0.01437452      -0.00757084
