12
Lattice="4.628820168507014 0.0019837240111112197 -0.0014038042691526932 -0.0035233971136751936 8.27219470329761 -0.009373246930113658 0.002865796445121355 0.011138309124492977 9.83483524332023" Properties=species:S:1:pos:R:3:forces:R:3 structure_index=0 total_energy=-102.35309600830078 stress="0.0031771983485668898 1.7371961803291924e-05 1.6404483176302165e-05 1.7329690308542922e-05 0.008542213588953018 -3.950928294216283e-05 1.6491505448357202e-05 -3.9255690353456885e-05 0.0056534744799137115" pbc="T T T"
Eu       1.82557692       4.27529278       6.46832770      -0.00010057      -0.00553653       0.00425997
Eu       4.13651685       7.99671042       1.54556515       0.00010444       0.00528640       0.00455131
Eu       1.82723749       0.14089957       8.09883148       0.00019259      -0.00541013      -0.00409671
Eu       4.13925260       3.86281389       3.17659425      -0.00017121       0.00468927      -0.00383207
Eu       1.82642238       1.13506314       4.16089034      -0.00021211       0.00895591       0.01972203
Au       4.13917658       6.10258490       8.49390360       0.00015773      -0.02044875      -0.04167763
Eu       1.82292036       5.26683540       0.56940513       0.00007297       0.00916712      -0.02048725
Eu       4.13850496       7.00249827       5.48386254      -0.00002671      -0.00840300      -0.01970788
Eu       4.14075116       2.87035505       9.07586213       0.00017795      -0.00828636       0.01936741
Au       1.82393015       6.17398293       3.57700677      -0.00008770       0.02031583      -0.04175515
Au       1.82430716       2.03517331       1.15095909       0.00021778       0.02002663       0.04201726
Au       4.14120584       1.96381224       6.06789821      -0.00032519      -0.02035644       0.04163865
