12
Lattice="5.79362154006958 0.0 0.003611174179241061 -2.725912104660552 4.922379024815796 0.00017482291150372475 0.0 0.0 9.227625846862793" Properties=species:S:1:pos:R:3 pbc="T T T"
Eu       1.03436518       0.09859044       0.67492629
Pt       3.93162346       0.09837443       5.29000743
Eu      -0.32931687       2.55809667       2.98251589
Eu      -0.32844972       2.55579526       7.59147217
Pt       3.93312231       0.09609188       0.67263663
Eu       1.03948717       0.09312300       5.28434169
Pt       2.85361666       1.10133827       2.97564094
Pt       2.56770370       2.55692601       0.67271508
Pt       2.28416933       4.01335874       7.59776847
Pt       2.85545387       1.09946428       7.59021495
Pt       2.28150045       4.01276109       2.98160869
Pt       2.57321740       2.55737462       5.28963703
