6
Lattice="2.8894016535568023 0.0006839338904130993 -0.0004032509447931341 -0.000913215305085929 4.255442178626251 -0.0011803245545781594 0.0010356009973714396 0.001091190575350671 7.52250285607197" Properties=species:S:1:pos:R:3:forces:R:3 structure_index=0 total_energy=-40.46149826049805 stress="0.012833362445235252 0.0010989492293447256 0.0007635105866938829 0.0010987988207489252 0.01982327364385128 -0.0008156484691426158 0.00076445029117167 -0.0008150023058988154 -0.04419857636094093" pbc="T T T"
Mn       2.82366469       0.49548941       3.41208996      -0.00048201       0.00166805       0.01696462
Fe       2.82308458       2.62379790       6.52597186       0.00060723      -0.00050760       0.00208950
Fe       1.37867021       0.49566094       5.96151144       0.00092930       0.00108144      -0.00288500
Au       1.37846178       2.62343693       4.23892415      -0.00022122      -0.00266587      -0.01792865
Au       2.82322388       0.49522561       0.72587706      -0.00029932       0.00177658       0.01917744
Mn       1.37836043       2.62309905       1.55290465      -0.00053391      -0.00135255      -0.01741792
