8
Lattice="2.8809194564819336 0.0 -0.4909689128398895 -0.16867609606921305 4.052476570107094 -1.0037875175476074 0.0 0.0 8.706466674804688" Properties=species:S:1:pos:R:3 pbc="T T T"
Fe       1.73371197       2.88131951       0.92836630
Fe       1.48252840       0.35592750       8.17696216
Fe       0.62295476       3.37648642       3.11949792
Fe       1.06295425       1.88372665       5.70922221
Fe       2.17459860       1.39174294       3.52465849
Fe      -0.04270803       2.38259836       7.91902343
Rh       2.41084505       3.89992081       4.91374502
Rh       0.38620638       0.86652852       1.73046028
