18
Lattice="4.601980128482841 -0.016043541277175877 -1.8065163013346626 -0.6276968078355623 5.55796201099357 -1.6076521455181123 -0.030120303256234684 -0.01964864861692029 8.409492601584867" Properties=species:S:1:pos:R:3:forces:R:3 structure_index=0 total_energy=-120.62798309326172 stress="0.033633872866630554 -0.0005305518861860037 0.003682777052745223 -0.000531937403138727 0.02662772871553898 0.0043969047255814075 0.003682778449729085 0.004397272132337093 0.027051633223891258" pbc="T T T"
Mn       3.71432945       0.69851886       2.63365626      -0.01139708       0.00066312      -0.00471957
F        2.84650699       3.99278967       3.58923325      -0.00262251       0.00798412       0.01686856
O        0.86902781       2.09575432      -0.98376902      -0.01059076      -0.01580800      -0.00618464
Mn       1.78756469       1.47986169       5.74535809       0.00102733      -0.00350398      -0.00466245
Mn       0.89993835       3.69261046       3.05962353      -0.00117721       0.00211436       0.00520423
O        3.08241712       1.41983580       4.31398277       0.00043923      -0.00745870      -0.00785437
Mn       4.06396159       3.00733698       4.66747970       0.00447603      -0.00578701      -0.00223381
Mn       2.53043947       3.42624031      -0.45944328      -0.00014994       0.03827408      -0.01674956
O        0.47533104       2.56585405       4.84932404       0.01075393       0.01425783       0.00230056
Mn       0.26073651       1.02457386       0.90958940      -0.00753433       0.00508845      -0.00695316
O        0.75883656      -0.01571036       5.16509903      -0.00160082       0.00156611      -0.02172911
F        1.92320294       4.37030385       1.16654781       0.02410899      -0.01089610       0.01540902
F        3.52530837       5.42921635      -0.71006033      -0.02294815       0.01673529      -0.00932667
O        4.21420515       2.69441343       0.13074175      -0.00646736       0.01196142       0.00810378
F        2.93033325       0.48552567       6.89393278       0.00262704      -0.01819446      -0.02104039
O        2.84747101       3.05174325       6.11841902       0.01435518      -0.01436784       0.00135566
F        2.11151412       1.49278557       1.77463221      -0.02734065      -0.00916135       0.01824377
F        0.38795866       4.69646927      -1.37220566       0.03404100      -0.01346686       0.03396815
