19
Lattice="6.342828372117494 -0.011636952125680668 0.8179650364966632 0.7203938480669231 6.30221137579364 0.8165841650680798 -0.010848319249325835 -0.008764350436703133 6.396143470417777" Properties=species:S:1:pos:R:3:forces:R:3 structure_index=0 total_energy=-153.2261962890625 stress="-0.002018463099375367 -0.005375339183956385 -0.006101314909756184 -0.0053749894723296165 -0.0010187726002186537 -0.0053323181346058846 -0.006101054139435291 -0.0053324345499277115 -0.003942311275750399" pbc="T T T"
Fe       4.54618687       1.91254196       4.58434874      -0.01514030       0.00325368       0.01772089
Fe       1.53630605       6.05544108       6.98369622       0.02382131       0.02465753       0.02077036
Fe       6.20890283       0.04858970       4.58104118       0.00267188      -0.02161787       0.02636698
Fe       5.67892075       4.07147485       5.28089819      -0.01387598      -0.01960777      -0.01903026
Fe       0.76070510       2.52774055       2.89130229      -0.00005817      -0.00185543      -0.00309016
Fe       1.94880647       1.91338199       6.86707021       0.01785421      -0.00982709      -0.02974711
Fe       6.41922720       1.90668307       6.13415567       0.00069190       0.00079560      -0.00571324
Fe       2.50599028       4.08118862       1.68105765      -0.02320039      -0.01936355      -0.02260179
Dy       2.48456996       4.06303393       4.85432457      -0.02915171      -0.01980913      -0.02824459
Fe       1.74572656       0.05494595       2.11712781       0.01502402      -0.01657103       0.00219245
Fe       5.74593163       1.30752980       2.16161088       0.00428547      -0.00415353       0.00458939
Fe       3.25414889       1.91655353       2.52652723      -0.00680398       0.00412777       0.00211241
Fe       6.78504935       5.06268618       3.34259975      -0.00046095      -0.00195396       0.00778775
Fe       4.76149595       3.77862577       2.93528739      -0.01394346       0.01832230       0.00155808
Fe       6.62998106       3.76546103       7.68499470      -0.00251930       0.02153666      -0.02506042
Dy       4.73228295       6.06337725       7.41087878       0.02422063       0.02769718       0.02816015
Fe       4.72283695       6.05594781       4.18797357       0.01183373       0.01346579       0.02680333
Fe       2.14080356       0.93323092       4.46413992      -0.01941264      -0.01758629      -0.02434663
Fe       4.35460893       2.89182958       6.98537189       0.02416398       0.01848944       0.01977238
