16
Lattice="5.689620494842529 0.0 2.5690701007843018 -0.33253242407317235 7.901543731708211 0.6974437832832336 0.0 0.0 7.510674476623535" Properties=species:S:1:pos:R:3 pbc="T T T"
O        1.29917556       2.81288156       5.64272701
Cs      -0.23148994       7.70593018       5.82169949
Ge      -0.03787985       3.76196569       5.32796490
O        5.04249669       0.16838821       3.44841442
O        4.15131504       2.11230431       3.70750666
O        2.90733171       0.29699852       3.73397749
O        5.01857642       4.46498633       9.28923498
O        2.47485107       5.78410893       7.34716656
N        2.06348157       6.35408609       8.36327864
O        4.52820893       2.78021023       7.14734429
O        0.39477047       5.02226477       4.30952997
Cs       1.83896118       2.54084768       1.14840811
O        1.62264389       5.70592012       1.82716341
O        2.16058473       7.63509130       8.30645429
Cs       3.68647608       5.05316361       4.58225035
N        4.04318084       0.84742106       3.67023953
