10
Lattice="7.087864570843535 0.007589421283745724 4.058715613316883 2.3531134784978778 6.670658165640494 4.079682796782217 0.01382204752815434 -0.010595489611252637 8.172646984575064" Properties=species:S:1:pos:R:3:forces:R:3 structure_index=0 total_energy=-26.18843650817871 stress="-0.0052690524607896805 -0.0019368085777387023 -0.0020508586894720793 -0.001937051652930677 -0.003935664426535368 0.0011095412774011493 -0.0020510179456323385 0.0011095370864495635 -0.0043715545907616615" pbc="T T T"
Br       3.20111770       0.07018541       5.87695986      -0.03705082      -0.02987227       0.00265470
K        3.11384585       0.01667749       9.93712178      -0.00561439      -0.00043462      -0.00427595
Hg       3.11752261       5.01753843       9.95209769       0.00865997      -0.00317893       0.00579771
Br       6.62873977       0.07754891       3.87852916       0.02074598      -0.02719320      -0.02956419
K        7.83139309       3.36734284       9.92197834      -0.00518557       0.00212677      -0.00744603
Br       7.76968279       3.31419199       5.86354339       0.03123723       0.01831807      -0.00178310
Br       6.64284616       0.07548077       7.83974202       0.01260332      -0.01820720       0.02049078
Br       4.33440433       3.30912182       3.88773736      -0.01945274       0.02919132      -0.03489507
Br       4.34836653       3.30732149       7.85038810      -0.01367333       0.01857829       0.02712816
Sb       5.48254364       1.68938192       5.85771407       0.00773032       0.01067179       0.02189297
