20
Lattice="4.875784873962402 0.0 1.7138476371765137 0.7208208419367568 4.929908187973474 1.982192039489746 0.0 0.0 8.115874290466309" Properties=species:S:1:pos:R:3 pbc="T T T"
Li       3.51226184       3.48866432       7.28415708
O        0.52394477       0.03996528       7.60297193
Li       0.94714414       0.61202193       3.08044401
Li       1.45820816       2.92360490       5.12558560
Li       2.71505393       2.15132320       1.99108418
H        2.25152063       4.87786592       9.58803232
O        3.89081351       4.74405256       8.97130732
Mn       4.58605143       3.76117848       4.41185888
O        4.95977380       4.63340722       6.12421135
H        3.71601765       0.52925677       4.20736521
Mn       5.39137232       3.69637094       9.61498546
F        1.21355867       2.49560449       3.23832862
H        0.34284943       0.95111950       7.23494327
H        3.36581898       0.73394295       6.70998428
F        3.27257346       2.49936658       5.43031379
F        2.08418288       2.60345830       8.36774349
O        4.30073620       2.87598973       2.79113082
F        5.00152091       2.34582534       8.02452411
F        1.81741308       4.53748531       6.64199454
F        2.49753626       0.25414937       2.12356552
