14
Lattice="4.227294921875 0.0 -1.6942722797393799 -0.28711355662574123 5.0111756244172785 -0.6490897536277771 0.0 0.0 6.244060516357422" Properties=species:S:1:pos:R:3 pbc="T T T"
Mn       1.39901492       4.09404462       0.00071027
Mn       2.26118043       4.37281109       2.34007638
Mn       3.20445497       4.66353229      -1.59773746
Mn       0.85045785       0.21458567       4.75238142
Mn       2.61121034       2.15980412      -0.96416908
C        1.66547111       3.51857629       4.11643431
Mn       3.44789522       1.03150632       1.17546626
Mn      -0.06266036       2.71408193       4.73442870
Mn       0.80390968       1.58589062       0.63060987
Mn      -0.15148372       3.53717717       2.24743045
C        2.34475556       2.73545465       1.17234196
C        3.37218941       1.01647015       3.81886904
C        0.92866335       0.22336396       2.11897178
Mn       1.75145583       1.87248737       2.95122569
