13
Lattice="4.596138977700213 0.001337435042785182 1.8470472079487548 2.284143347696133 6.066843097211698 0.9539249526016071 0.03571226967109051 0.03203804571250792 6.552339004132707" Properties=species:S:1:pos:R:3:forces:R:3 structure_index=0 total_energy=-101.45668029785156 stress="0.006042459513992071 0.0010990662267431617 -0.0010041710920631886 0.0010985062690451741 0.008627290837466717 -0.0026756569277495146 -0.0010050027631223202 -0.0026748350355774164 0.007910500280559063" pbc="T T T"
Tb       1.45001009       0.82487866       1.39140689      -0.01212901      -0.03586025       0.03182785
Dy       2.86560525       4.55952652       4.50841407      -0.00670381      -0.01539367       0.01430199
Fe       2.20171668       2.77848924       6.16119655      -0.01317486      -0.03309452       0.03013271
Fe       5.24120258       2.91473962       5.24223878       0.00297826      -0.01886344      -0.01904625
Fe       6.48152545       5.74531857       8.79449918       0.00828532       0.00777259      -0.02913100
Fe       5.51506331       5.50462604       4.55569687      -0.01041742      -0.03412908       0.03312012
Fe       4.30632342       2.26041493       7.56583933       0.00897089       0.01826814      -0.01830323
Fe       3.30809969       1.93094293       3.40884302       0.00385315       0.03400256      -0.00596990
Fe       4.54949743       4.76521230       6.95870143      -0.00542392       0.01761814       0.01894163
Fe       2.58689696       3.80179138       1.81269051       0.00831822       0.01444618      -0.01185143
Fe       3.71971883       0.89069049       5.63409819       0.01489496       0.01658163      -0.01402577
Fe       4.93344386       3.80220063       2.75566971      -0.00103789       0.01524483      -0.01670146
Fe       1.47067239       0.89066614       4.72913821       0.00158602       0.01340701      -0.01329524
