10
Lattice="4.70496940612793 0.0 -0.00031429625232703984 0.007761835219253621 7.555453605084416 -0.08713605254888535 0.0 0.0 7.678313255310059" Properties=species:S:1:pos:R:3 pbc="T T T"
Pt       0.99127995       3.84952723       6.53942580
Eu       0.99117346       6.71263305       7.32461267
Eu       3.34151285       1.80746645       5.82312784
Eu       3.34540805       5.21418572       4.75442558
Eu       3.34562880       4.14032581       1.14578999
Eu       0.99177246       2.95174739       3.52072410
Pt       0.99298973       5.85943981       2.45442801
N        3.34189717       2.84518431       3.40230115
Eu       3.34199789       0.46291120       2.52459898
Pt       0.98972980       0.02441017       4.63708380
