12
Lattice="4.681460380554199 0.0 0.5387275218963623 2.2256546835067477 3.99736757786404 1.0974040031433105 0.0 0.0 6.841962814331055" Properties=species:S:1:pos:R:3 pbc="T T T"
Zn       5.34204986       1.42015525       3.06246030
Zn       3.04149733       0.08745608       2.51769499
Fe       3.54586550       1.01090965       4.92521110
Fe       5.86625050       2.32865149       5.46951956
Fe       4.83951121       0.49578331       7.49840926
B        6.44892438       3.42044594       7.03387107
Fe       2.96303994       2.75205716       3.07170028
Fe       2.45769387       1.85154852       7.51261602
Fe       3.46832089       3.65167913       5.47062608
B        1.85230091       0.75224557       5.94388308
B        4.15775203       2.08324541       6.48983585
Fe       4.74064826       3.17230815       8.05481796
