16
Lattice="7.588149547576904 0.0 1.28115975856781 -0.05285936591885828 5.796774189320211 -0.03136561065912247 0.0 0.0 8.710637092590332" Properties=species:S:1:pos:R:3 pbc="T T T"
V        2.26841174       0.41984986       0.53694201
V        4.68653011       4.79311869       7.55405845
O        4.42311883       3.33731269       3.21808054
O        4.48105643       3.71567923       6.17138021
V        6.98631939       0.35329937       5.57985675
V        5.38745556       3.38937829       4.66238551
O        0.68371137       0.49801892       0.11840375
O        4.80072630       3.79318370       9.02828888
O        2.51221457       4.85659769       1.67267064
V        3.61935346       3.45776083       1.65300050
O        1.01570856       0.46136893       4.55107058
O        2.80494216       1.93518325       1.30709576
O        3.33444078       0.06327437       7.84019284
O        6.28972010       1.85941171       4.85603595
O        6.49208672       4.78239530       4.49307354
O        6.14062064       0.01763607       7.18096458
