16
Lattice="7.646828857866658 0.040445928418296584 1.403579614551493 -0.03022534541706642 5.863366201671297 0.012160621288631981 0.09438692146141933 0.06774499982413924 8.983930770974213" Properties=species:S:1:pos:R:3:forces:R:3 structure_index=0 total_energy=-120.12725067138672 stress="0.009213264100253582 -0.0010543218813836575 -0.0024887043982744217 -0.001054899301379919 0.005072338972240686 0.0008860444067977369 -0.0024883849546313286 0.0008857222273945808 0.007970236241817474" pbc="T T T"
V        2.28036106       0.43162701       0.59261913      -0.00800571      -0.00976010       0.02270809
V        4.81157294       4.90767197       7.87672751       0.00060269       0.00688139       0.00272820
O        4.48078859       3.45219077       3.40628947      -0.00076544       0.02618703       0.00985387
O        4.60163101       3.87332784       6.40667654      -0.01417452       0.02457075      -0.01797980
V        7.09559824       0.42195616       5.84804702       0.00751081      -0.00230622      -0.01522867
V        5.50676721       3.47067847       4.88474536       0.02270230       0.00196970      -0.01220237
O        0.72418873       0.50537949       0.16382295       0.00341457       0.00459556       0.01414990
O        4.90019733       3.97732297       9.41781972      -0.01175553       0.02681437       0.00430559
O        2.53926502       4.92696195       1.72838842      -0.02492765      -0.01353657       0.00237930
V        3.66772577       3.49652126       1.80310467      -0.01802441      -0.01252288       0.02660868
O        1.05223031       0.49159666       4.63913286       0.00408435      -0.00034838      -0.03227868
O        2.82668493       1.97820917       1.35725356       0.01930657      -0.00962061      -0.00188626
O        3.39884671       0.13485670       8.14707296      -0.02358615       0.01361190      -0.01718980
O        6.41027109       1.94029394       5.14453850      -0.01057843      -0.01087786       0.02164139
O        6.64805874       4.89672763       4.80674781       0.01909353      -0.01319285       0.00066921
O        6.28610173       0.07712317       7.41786110       0.03510303      -0.03246500      -0.00827873
