9
Lattice="3.776151418685913 0.0 -0.0025133658200502396 -0.00517278967120777 5.228173081110351 -3.0120790004730225 0.0 0.0 6.035526752471924" Properties=species:S:1:pos:R:3 pbc="T T T"
Li       2.75499218       0.01371107       1.08673311
F        0.85998469       1.61366955      -0.33589572
Eu       2.74810335       1.75656001       4.10827575
F        2.74730786       1.92080896       1.67880368
F        2.74577317       3.77593137      -0.57447878
F        2.74515560       4.80124149       2.16184066
Eu       0.85820675       3.49948832       1.08723500
F        0.86097495       0.45186528       3.19050234
F        0.85910265       3.20402463       3.43769398
