16
Lattice="5.437733300477175 0.019765115258223883 -1.5035766981098146 -1.0181211631235696 5.462095592926533 0.6860727905996278 0.00845015405572905 0.03764701006195011 7.242273613765872" Properties=species:S:1:pos:R:3:forces:R:3 structure_index=0 total_energy=-153.82568359375 stress="-0.028107520192861557 -0.0009477836429141462 -0.001503928448073566 -0.0009494168916717172 -0.026312457397580147 0.000518330663908273 -0.0015030112117528915 0.000521319976542145 -0.025240639224648476" pbc="T T T"
O        1.05347457       3.83619073       2.91572618      -0.00631487      -0.00552392      -0.00694428
Zr       3.06073656       0.84223950      -0.62850053       0.00772888      -0.00879320       0.01027289
Zr       1.29572236       3.11450067       0.69553800       0.01480849      -0.01269397       0.00317819
Zr       4.45731802       2.82763784       1.46150651      -0.01391457       0.02051401       0.00809487
Zr       2.87753452       5.24996782       2.76303768      -0.00621367       0.04137763       0.00774449
Zr       3.80879574       4.08613132       5.79487039       0.00099537      -0.00854789      -0.03068715
O        3.41505838       0.27748599       4.35076219       0.01609838       0.01499525      -0.00053026
Zr       0.39840599       4.57522067       5.03743906       0.01523265      -0.00746322      -0.01746486
N        3.19094921       4.52715684       0.68532717      -0.00013597      -0.01721840      -0.00747114
N        4.01842817       3.43646720       3.61138869      -0.00615893       0.01055470      -0.00140981
Zr       2.31197080       2.04777672       3.55452153      -0.00452426      -0.01825191       0.01078232
O        1.83897806       2.78781303       5.75407605       0.00185612      -0.01116405       0.00399834
N        4.76821969       2.28696033      -0.67308858       0.00363598      -0.00422576       0.00555941
O        0.34469666       0.91508875       3.66673491      -0.02841584       0.02308613       0.01264573
N        0.28210545       4.98609974       7.11827868       0.00112864      -0.02248132       0.00387353
N        2.63048128       1.49576685       1.42836850       0.00419366       0.00583643      -0.00164304
