7
Lattice="5.160851001739502 0.0 -2.5787193775177 -1.299344037909379 4.994567472419041 -2.5817551612854004 0.0 0.0 6.447319984436035" Properties=species:S:1:pos:R:3 pbc="T T T"
Mn       0.33338819       1.11301120       1.86850529
Ge       0.64535774       4.86131632       2.50696609
S        3.31215914       1.63054706      -1.64237739
S        0.20143344       4.29018207      -1.80779857
Mn       2.26352557       3.61256371      -0.72027402
S       -0.02673425       0.43465474       4.16755150
S        1.69852224       3.09669705       1.58676577
