9
Lattice="4.215204238891602 0.0 0.005116186570376158 -2.1006195743826344 5.015789485578453 -0.33933210372924805 0.0 0.0 7.709683418273926" Properties=species:S:1:pos:R:3 pbc="T T T"
Cu      -0.36799801       3.86756278       6.57009122
Pd       1.74173006       4.55890858       5.26368532
Cu      -0.36489673       4.80840898       0.99809765
Eu       1.73617706       1.71816232       6.60032868
Eu       1.74066841       3.07329194       2.56938461
Pd      -0.36841034       0.97011331       2.02427236
Pd      -0.37072110       2.33343514       4.54430101
Be       1.73791610       4.70812826      -0.19904035
Pd       1.73477280       0.22641133       3.92371558
