10
Lattice="5.376689139573769 -0.04441925646880522 -1.0263629953682145 -2.7509077990058772 4.368367263678195 -1.6015569382929462 0.08189313745655416 0.05657648098183479 5.734366386816905" Properties=species:S:1:pos:R:3:forces:R:3 structure_index=0 total_energy=-59.35651397705078 stress="-0.028252478688955307 0.004739913623780012 -0.0063018170185387135 0.004737858194857836 -0.02654532715678215 -0.003151359735056758 -0.006301330868154764 -0.0031513641588389874 -0.019070882350206375" pbc="T T T"
Zn       0.84053437       0.53408851       1.70684389      -0.00279589       0.00436865      -0.00906233
Fe       3.61007866       2.15197207       0.48095793      -0.01994193      -0.02155453       0.00089196
O        0.35396741       2.67307858       1.93848380      -0.02105942      -0.00135423       0.01865605
O        3.51104380       2.82722354      -1.55404948      -0.00203726      -0.00529969       0.00875421
Fe       4.55686467       1.32903124       3.43703092       0.04078320       0.02629572      -0.00212758
Fe       1.85062097       3.00039790       3.23049797       0.01392287      -0.01367777      -0.01790315
O        2.56313364       4.04413320       0.85270236      -0.00922120      -0.00114385       0.00763923
O        2.84823524       0.84246275       1.98448104      -0.00799004       0.01454037      -0.00218393
Ge       0.83795475       3.42337475       0.18913524      -0.00413044       0.00800163       0.00440717
O        4.54215755       0.53723584      -0.43546394       0.01247016      -0.01017614      -0.00907188
