4
Lattice="2.652164953621088 0.0009484000257128428 0.41855518524639385 1.2915019507521694 2.3162634341247887 0.4185523413889596 -0.009441715985079034 -0.005618149446264489 8.675864905323934" Properties=species:S:1:pos:R:3:forces:R:3 structure_index=0 total_energy=-27.164459228515625 stress="-0.045876357704401016 -0.004011000040918589 0.00022536740289069712 -0.004011016339063644 -0.04106684774160385 0.00022915245790500194 0.00022600572265218943 0.00022966023243498057 -0.04066526144742966" pbc="T T T"
Cu       1.19960167       0.29003710       2.72437486      -0.00167045      -0.00101968       0.00936308
Rh       2.85284789       1.26139161       0.85256661      -0.00633019      -0.00391716       0.04698630
Fe       1.82926401       2.21674673       7.35247082       0.00021691       0.00024334      -0.00920477
Rh       2.17412356       0.86166541       5.17033517       0.00778373       0.00469350      -0.04714461
