12
Lattice="6.162160527143313 0.01157772882813726 -0.016033727301584776 -0.009294754635095149 7.500850515697842 -0.003243258709195994 0.040844183795901275 0.019265396053156723 10.801070004512896" Properties=species:S:1:pos:R:3:forces:R:3 structure_index=0 total_energy=-111.08467864990234 stress="-0.007469620555639267 0.0017187758348882198 0.003975394181907177 0.0017187632620334625 -0.004567665979266167 0.0018356104847043753 0.00397537974640727 0.0018356359796598554 0.004772959742695093" pbc="T T T"
Eu       3.95882302       3.43567825       2.36774078      -0.00365096      -0.00359255       0.01303020
Eu       0.88667957       7.18457277       7.58655732       0.00500362      -0.00113404      -0.01645223
Nd       0.82476557       5.29991207       4.07084969       0.02450839      -0.00195473       0.04116153
Nd       4.02583391       1.54540535       5.87757910      -0.02205313       0.00330492      -0.03582799
Eu       0.89172930       3.40944623       7.58604868       0.00436328       0.00122610      -0.01596785
Eu       0.84492342       1.53672010       0.50516049      -0.00130190       0.00498843       0.00354025
Eu       3.95627977       1.55366355       9.40923858       0.00938484      -0.00113987      -0.01073908
Eu       3.91036718       5.29991386       5.83192365       0.01302796      -0.00299176      -0.02946912
Eu       4.00505839       5.30310200       9.44529471       0.00278214       0.00065873      -0.00102590
Eu       0.94277546       1.54845125       4.11981400      -0.01695103       0.00062454       0.02876262
Eu       3.95288667       7.15904741       2.36618274      -0.00321345       0.00434419       0.01201163
Eu       0.89560354       5.29164438       0.54076521      -0.01189977      -0.00433396       0.01097596
