16
Lattice="5.2688525677320275 -0.02256879923157201 -0.01069791355514004 -1.6808137915082642 4.9885941005808165 -0.04850795525558414 -0.013068738312977429 -0.05207996596390876 6.128232116453822" Properties=species:S:1:pos:R:3:forces:R:3 structure_index=0 total_energy=-110.74836730957031 stress="-0.029651569202542305 0.005284443497657776 -0.00014170663780532777 0.005284205544739962 -0.026203718036413193 0.0007685351301915944 -0.0001410386321367696 0.000768854224588722 -0.022616442292928696" pbc="T T T"
Mn       0.24916089       4.21672463       2.53383186       0.01086284       0.00055388      -0.00366955
O        2.06050320       3.03797001       2.42051690      -0.00141612       0.01969695      -0.01385629
Mn       2.88547535       4.16192114       0.95683779       0.00491078      -0.01152563       0.01180393
O        0.21593934       0.58256709       2.70206384       0.02512185       0.00606260       0.00489688
O        2.92309421       0.32559671       0.94743956       0.02702723      -0.00804883       0.02367908
Mn       1.06008210       1.70064476       4.13167775      -0.00575715      -0.00534032      -0.00614781
Li       1.03946724       1.71208876       0.99058369      -0.01303200       0.02286444      -0.00080143
Li       2.87962812       4.20365817       4.09989807      -0.01259848      -0.00304281      -0.00059236
Li       3.67109507       1.63547119       5.61999053      -0.00135209      -0.00852047       0.00575207
Mn       0.23079401       4.14423106       5.60135281      -0.00841399      -0.00309652       0.00244339
Mn       3.70397138       1.71110934       2.55380897       0.00225622      -0.00404128       0.00180680
O       -0.52721818       2.91515621       4.14556895       0.00550365      -0.01353695      -0.01444098
O       -0.78304358       3.01054997       1.04326258       0.00510922       0.02033570      -0.01939085
O        2.69933469       0.58588911       4.08628480      -0.02292383      -0.00610614       0.01291510
O        1.80287343       2.92813746       5.50628307      -0.01260445      -0.00424588      -0.00553232
O        0.25244284       0.25043931       5.75861723      -0.00269365      -0.00200832       0.00113401
