8
Lattice="3.072880983352661 0.0 0.0078580928966403 0.04208180168438252 4.982767745129792 -1.5243020057678223 0.0 0.0 5.196749210357666" Properties=species:S:1:pos:R:3 pbc="T T T"
Fe       0.92349171       1.26403664       3.86121706
O        0.92949473       0.01480540       0.30095484
Fe       0.94458267       3.76382031       0.49045546
Li       2.45978414       1.26786685       1.26088740
Fe       2.48071241       3.76556308       3.09873175
O        2.45010850       0.15003158       2.97811881
O        2.46933530       2.38751097      -0.45366299
O        0.91407537       2.52887280       2.20849414
