8
Lattice="3.617504119873047 0.0 -0.0003554999711923301 -1.8115389836738696 3.128285298091653 -0.0012615056475624442 0.0 0.0 12.571166038513184" Properties=species:S:1:pos:R:3 pbc="T T T"
Eu       0.95731135       2.57141815       8.27676320
Eu       0.95793046       0.48703608       1.89267421
Eu       0.95386586       2.57192896       4.59733999
N       -0.85202497       1.52950489       3.23891675
Eu      -0.85379149       1.52838821      11.00145291
N        0.95686059       0.48580415       9.66591678
F        0.95536209       2.57247782       0.17260221
F        0.95575735       0.48559350       6.34068894
