16
Lattice="6.642130691976204 -0.24773964015322547 -0.9765272135152633 4.6225628188569114 8.666059512851042 0.910889268491917 0.6834313430194449 0.5089274054504965 7.5818428489439444" Properties=species:S:1:pos:R:3:forces:R:3 structure_index=0 total_energy=-136.28549194335938 stress="0.006969676818698645 -0.0012882757000625134 -0.0004719457356259227 -0.001288227504119277 0.007401293609291315 -0.0002854698395822197 -0.000472002022434026 -0.00028539480990730226 0.006575246807187796" pbc="T T T"
Pu       6.19448243       1.76489273      -0.44825215       0.01690063      -0.01466762      -0.02369824
Bi       8.88288945       6.35033038       3.81275726      -0.00462202      -0.02764521      -0.00558142
Pu       5.56212315       6.42989452       4.30513220       0.01938006      -0.00508015       0.01227926
Sn       5.87736102       4.12270690       1.94320156      -0.00158322       0.00921956      -0.01438615
Pu       6.65033242       7.29087449       1.39758119       0.01612097       0.00995255       0.03249651
Sn       4.79355053       3.27827123       4.71646592       0.00354965       0.00547905      -0.02382582
Ce       5.09633728       0.90284158       2.41761326      -0.00065973       0.00310920      -0.00896897
Ce       2.55761119       4.26554736       2.39198827       0.00730135       0.00985790       0.00938240
Bi       2.91274278       1.89619456      -0.01945765      -0.01038119       0.00022607      -0.01312715
Sn       7.67812143       5.47117845       6.73105464      -0.00239093       0.00164138      -0.00535677
Pu       8.58084380       8.69240854       6.19689556      -0.01380376      -0.01326661       0.01313486
Bi       1.73643748       0.98852650       2.96021364      -0.00108514       0.01092429       0.00489611
Pu       4.44096635       5.62708321       7.16943264      -0.03757887       0.01157957       0.00864485
Sn       5.20224905       8.80614573       6.73536706       0.01907477       0.00408531      -0.01336757
Sn      10.04885730       7.21891091       0.87803622      -0.02422197      -0.03236708       0.04038915
Pu       8.03288796       3.13936689       4.31006292       0.01399944       0.02695179      -0.01291103
