4
Lattice="4.162698235678707 0.0024463074121601905 2.3914616563727367 0.7112782333333998 4.871479092057641 3.5805820016489722 -0.669312547273659 0.9461267512387495 5.972448676915785" Properties=species:S:1:pos:R:3:forces:R:3 structure_index=0 total_energy=-15.666770935058594 stress="0.03422694653272629 0.05836988985538483 0.004216647706925869 0.05836992338299751 -0.008312487043440342 -0.006578007247298956 0.0042167711071670055 -0.006578073371201754 -0.051927413791418076" pbc="T T T"
Pm       0.06578581       4.05330356       8.33928114      -0.00548245      -0.00676903      -0.00618491
Tl       3.17530665       2.60084012       7.74562762      -0.00245014      -0.00679880      -0.00716338
Pm       1.78445029       4.55462709       5.34589431       0.00293313       0.01188005       0.01086844
Tl       2.12464258       1.14116295       4.75351141       0.00499947       0.00168778       0.00247986
