11
Lattice="2.805973768234253 0.0 0.0003219990467187017 0.003149010869878385 2.81173863503783 0.002356902463361621 0.0 0.0 17.989992141723633" Properties=species:S:1:pos:R:3 pbc="T T T"
Mn       0.42735664       2.75675851       1.25744728
Mn       1.83184164       1.34226773       6.00855982
Mn       0.45714820       2.74789806      13.90062984
Mn       0.45653932       2.73463360      11.05306593
Mn       0.43983389       2.75684080      16.28189868
Mn       1.85479111       1.33873563      12.47073304
Hf       0.44296224       2.73492705       7.96217027
Mn       1.83310181       1.35043871      17.81086518
Zn       0.42125416       2.74210304       4.44371435
Mn       1.82607883       1.35146329       2.64037318
Mn       1.85116335       1.33682549       9.67790782
