3
Lattice="4.1967059249729575 -0.00016741214346839334 -1.3135246393946272 -0.40955735971529217 4.177977445432462 -1.3138323481252019 -0.0004485913955988856 -0.0005390521517187021 7.355923143053701" Properties=species:S:1:pos:R:3:forces:R:3 structure_index=0 total_energy=-22.459728240966797 stress="-0.05713949352502823 0.006775323301553726 0.007073006592690945 0.006775320507586002 -0.053522899746894836 0.008361387066543102 0.007073074113577604 0.008361409418284893 -0.042468346655368805" pbc="T T T"
Eu       1.93631012       3.17131172       2.25984777      -0.00314849      -0.00516911      -0.01230443
Eu       0.67510918       1.77796256       5.58874290       0.00204871       0.00376285       0.00923893
Ca       3.60823063       0.38472220       0.24425068       0.00109979       0.00140626       0.00306549
