4
Lattice="4.0260019316036075 -0.006715765417239357 -0.012993294690699552 -2.006418087840279 3.489203629699555 0.00987967146796414 0.016345768896141626 -0.0015407563821635889 6.456599032376702" Properties=species:S:1:pos:R:3:forces:R:3 structure_index=0 total_energy=-28.578224182128906 stress="-0.043860141187906265 0.0022437560837715864 -0.0035446693655103445 0.0022438352461904287 -0.054701559245586395 0.0013383826008066535 -0.0035444346722215414 0.0013386147329583764 -0.08098636567592621" pbc="T T T"
P       -0.27219385       2.70266587       0.41512530       0.00176775      -0.00192775       0.00790064
Zn      -0.25893277       2.69624108       4.51333906      -0.00111470       0.00295835      -0.00879833
Gd       3.75449476       0.37003841       1.94583620      -0.00058003      -0.00216921      -0.01063822
P        1.74902443       1.53252385       3.64795995      -0.00007298       0.00113867       0.01153594
