15
Lattice="5.901508331298828 0.0 2.382608413696289 -0.13196241915928006 5.837307094159396 2.1481642723083496 0.0 0.0 6.86115837097168" Properties=species:S:1:pos:R:3 pbc="T T T"
Mn       0.13734757       2.59284145       1.76082788
Mn       3.20378710       1.80291449       4.17503970
Pt       5.12221614       5.80676719       6.48811826
Mn       4.22445207       3.14728103       6.74693326
Pt       2.02700485       0.74332539       2.03004272
Mn       1.20702718       3.96623674       4.34017234
Mn       0.75482482       5.50257781       8.76177267
Pt       1.60803164       2.28762856       6.36795175
Pt       4.79164289       1.52818998       8.88339978
Mn       0.43065002       1.06022320       4.19989455
Au       3.64952622       0.39689613       6.60562306
Pt       2.60001674       3.49921348       8.90756421
Pt       2.29228777       5.05935336       6.54569974
Pt       5.53786012       4.23601475       8.86532895
Au       3.98870689       4.46754271       4.32147370
