8
Lattice="4.563108444213867 0.0 -0.000776981352828443 0.0012547007038330466 4.710029911768637 0.003297362709417939 0.0 0.0 4.594222068786621" Properties=species:S:1:pos:R:3 pbc="T T T"
Eu       1.75696892       3.77109713       3.46604404
Fe       4.03941434       1.41668168       3.46462012
Na       4.03997670       3.77073045       1.16971357
O        1.75824241       3.77347122       1.16912904
O        1.75447708       1.41715556       3.46557937
Fe       1.75624256       1.41360335       1.16686930
O        4.04042317       1.41715600       1.16623743
O        4.04284183       3.76993838       3.46657738
