14
Lattice="5.552590370178223 0.0 0.9230141639709473 -0.11169680212287117 4.890225492436221 1.9476866722106934 0.0 0.0 7.207651615142822" Properties=species:S:1:pos:R:3 pbc="T T T"
Fe       1.58928461       0.69189271       2.49844417
Fe       4.68897437       1.40543918       8.39525246
Rh       0.08845497       4.21226947       7.53369769
O        5.20252186       2.74194389       7.12017660
O        0.92983266       0.37641182       7.24946394
Pb       4.91306324       2.87480958       4.67761184
Pb       1.98249086       1.98297854       5.75478911
O        3.83223681       4.78544945       9.30713792
O        0.38882322       0.82665892       4.13822263
O        2.03595819       3.85545637       7.23122187
O        1.61895983       3.63372334       4.00892236
O        3.18105998       1.87623997       2.18732766
Rh       2.15953530       3.65461722       2.01692425
O        0.39948210       2.54370911       1.63303545
