16
Lattice="2.908709764480591 0.0 0.5105841159820557 1.0803704910873784 7.291697021484035 2.355344295501709 0.0 0.0 8.442808151245117" Properties=species:S:1:pos:R:3 pbc="T T T"
Fe       2.25255572       2.63136299       3.30611502
Mn       2.46181751       7.07726078      10.46592888
Fe       0.40929906       1.17221137       5.23804201
H        1.00133675       4.50836689       1.82634745
O        1.15173733       5.77541604       9.43838916
O        2.93745038       4.08130460       7.80972804
H        2.93414691       3.08067538       7.87025491
Fe       1.49028484       5.32651675       7.51831905
O        0.78797844       1.03258023       3.05438363
O        2.96700569       1.09859571       7.64833324
Mn       3.34558449       6.88593889       5.52071138
O        2.99252225       6.92987626       7.53116903
O        1.85241493       5.68521173       5.45430636
O        1.92189853       2.39491308       5.14092250
O        3.67417952       6.96087329       3.67763536
O        0.91998746       3.57589919       2.30798464
