14
Lattice="3.5127477466518204 0.000303617753339719 -0.0004450209796040073 -0.0008116281470277644 6.05956494844441 -0.003076467559822713 0.001332403585946209 0.004017287171159336 10.554788595293415" Properties=species:S:1:pos:R:3:forces:R:3 structure_index=0 total_energy=-144.30467224121094 stress="-0.01570851355791092 -7.557174103567377e-05 -6.435973045881838e-05 -7.50600011087954e-05 -0.017084065824747086 0.00012354963109828532 -6.327449227683246e-05 0.00012488327047321945 -0.011372794397175312" pbc="T T T"
Sr       1.87902193       0.22251967       8.92663354       0.00027930      -0.01211780       0.03939818
Gd       0.12169232       0.27395026       1.83910370       0.00052053      -0.00712910      -0.01046857
Sr       0.12146097       3.24646418       3.24166089       0.00019366      -0.00846897      -0.03841483
O        1.87783490       1.83756902       1.56820649       0.00061807       0.00602182      -0.00373167
O        1.87865122       1.35288698       6.77026519       0.00035527      -0.00948530      -0.01024501
Gd       1.87910773       3.31011706      10.32913644      -0.00031115      -0.01233389       0.00831084
O        0.12131304       4.86989604       0.04070317      -0.00068288       0.00215544       0.00218837
O        0.12217389       0.96867066       4.05018407      -0.00051573       0.01351268      -0.00093266
O        1.87866016       4.00405083       8.11622478       0.00015545       0.00857184       0.00323149
O        0.12189508       4.38069349       5.39546553      -0.00045871      -0.00735077       0.01140905
Gd       1.87791244       5.94093108       5.03522760       0.00004438      -0.01311079      -0.01333928
Gd       0.12231283       2.91346736       7.13109263      -0.00039647      -0.01145606       0.01204184
O        1.87756199       4.97188773       2.71513269       0.00051860       0.02735028      -0.03929099
O        0.12266228       1.94963834       9.44868753      -0.00032006       0.02384049       0.03984325
