8
Lattice="3.7730936012692475 0.00010092876103515944 -0.9656140147726514 -0.24919421454358753 3.7724834231471958 -0.9733219114682251 -0.07409978156572646 -0.0730313677575279 7.565008128948707" Properties=species:S:1:pos:R:3:forces:R:3 structure_index=0 total_energy=-58.34586715698242 stress="0.033361442387104034 0.0007814893615432084 -0.0018603625940158963 0.0007805181667208672 0.015402029268443584 0.0031358986161649227 -0.0018616676097735763 0.0031346341129392385 0.026929594576358795" pbc="T T T"
Mn       0.85395851       1.49756759       2.45772455      -0.00035107      -0.00076050      -0.00028737
Ni       2.61567717       3.38415857       1.48808627       0.00037531      -0.00152750       0.00067588
Mn       1.69667120       2.40281527       5.75191048      -0.00513496      -0.00539856      -0.02452449
Ni       3.16205572       1.95064111       3.62168975       0.00985027       0.01077568       0.04440468
Mn      -0.06332122       0.51858778       6.72858489       0.00611613       0.00696811       0.02496085
Ni       2.31897421       1.04427610       0.32873192      -0.01147139      -0.01044792      -0.04687804
Pt       0.30712162       2.93000695       0.32197234       0.00138854       0.00252255       0.00583995
Pt       1.40038968       0.06470865       4.59327738      -0.00077293      -0.00213193      -0.00419136
