20
Lattice="4.638097048668749 0.013050733843969759 1.625034509260209 2.5448665776842283 6.26898129367653 0.9431350656910743 -0.06181230366947896 -0.055041031938692926 6.582539172876291" Properties=species:S:1:pos:R:3:forces:R:3 structure_index=0 total_energy=-131.9298858642578 stress="-0.0031734174117445946 0.0044881016947329044 -0.016223568469285965 0.004488423466682434 0.029717393219470978 0.018149567767977715 -0.016223464161157608 0.01814943738281727 0.008505848236382008" pbc="T T T"
Fe       2.12069135       0.79517474       5.17147494      -0.00455952       0.02732686       0.02682538
Fe       5.01517784       6.01424873       8.37572089      -0.00229352       0.00736625      -0.00764597
Fe       3.19575127       4.46869691       2.78749988       0.00711548       0.00008361      -0.00659504
Fe       4.57784217       3.74355493       7.44513952       0.00095704      -0.01296484      -0.00607017
Fe       5.74341035       3.96342768       3.16497877      -0.00552641       0.02904933       0.02487413
H        1.04577750       2.20302224       5.52359973      -0.01308269      -0.01448649       0.01240369
Ni       0.69560241       1.71169800       0.60386110       0.00353855      -0.01134338      -0.01413352
Fe       3.52542204       0.13748891       3.23397362       0.00372175       0.00610676       0.01222228
Fe       1.45402903       2.90076873       3.80066346      -0.00117345       0.00809539      -0.00759270
Ni       2.86131810       2.17661310       1.86341517       0.00372781      -0.02136233      -0.01763078
Fe       4.21168449       1.31303498       6.41875615       0.00526061      -0.00064930      -0.00500708
Ni       6.42273372       5.29025607       6.43978481       0.00311138      -0.02129861      -0.01918153
Fe       2.44677839       3.23765283       6.18382682       0.00630298       0.00842395       0.01296170
Fe       1.01765100       0.63080259       2.86981620       0.00216132      -0.01577231      -0.00852355
Ni       4.25730505       4.82501427       5.17982410       0.00265950      -0.01095459      -0.01581058
Ni       2.80862236       5.54547227       7.05080527       0.00132058       0.01133144       0.02569768
H        4.66853842       5.37210009       3.51512424      -0.01315389      -0.01438479       0.01370480
H        3.21297487       6.22794379       2.04310102      -0.00104324       0.00558661      -0.02144246
Ni       3.88575227       2.44477244       4.10066213       0.00182128       0.01312636       0.02583863
H        4.22805153       3.07034948       5.67846480      -0.00086553       0.00672002      -0.02489494
