7
Lattice="3.880784088608498 -0.04257295002523919 0.03932353717137059 0.10823282241109461 6.6188256744708704 -4.3378118357098066 -0.07103887436952723 -0.15672437392958952 7.663640652095973" Properties=species:S:1:pos:R:3:forces:R:3 structure_index=0 total_energy=-31.514436721801758 stress="-0.023060645908117294 -0.0006898005958646536 0.00124479946680367 -0.0006893677054904401 -0.027421966195106506 -0.0019514490850269794 0.0012458550045266747 -0.0019497467437759042 -0.02693610079586506" pbc="T T T"
N        1.75454309       3.56838080       3.65594445       0.00154983      -0.00372787      -0.01667832
Sr       1.71955132       1.40764928       4.72076372       0.00114305      -0.00204605      -0.00182961
Cl       3.72118389       2.44134310      -0.97389504       0.00127234       0.00803323      -0.02652377
Cl       3.74436940       5.74750373       0.31178342       0.00102547       0.03365495       0.03710815
Sr       3.76773273       4.91052308      -2.71113098      -0.00221126       0.00458002      -0.00332606
Cl       1.74255176       0.70495645       1.80093843      -0.00139881      -0.03096335      -0.00640255
Sr       3.70869598       3.21090602       1.95021579      -0.00138050      -0.00953083       0.01765186
