4
Lattice="4.139799906558979 0.0008954626261601141 -0.0007453307274144455 -0.0014697538098722737 5.553906026963949 -0.0005395030746936005 0.0008533322115559029 0.0001983924863748592 5.5544886980261605" Properties=species:S:1:pos:R:3:forces:R:3 structure_index=0 total_energy=-27.101741790771484 stress="0.025447823107242584 -0.0007331911474466324 -0.0004985451814718544 -0.000733138935174793 0.05642262101173401 -0.00037688264274038374 -0.0004984990227967501 -0.00037690449971705675 0.05891923978924751" pbc="T T T"
Eu       3.44538017       1.09867665       1.45137035      -0.00287458       0.00006569      -0.00551646
Cd       1.37395967       1.09822305       4.23167909       0.00329603      -0.00041165      -0.00074955
Eu       3.44663420       3.87528029       4.21670676      -0.00490286       0.00069434       0.00088096
Pb       1.37297042       3.87541622       1.43510733       0.00448141      -0.00034840       0.00538505
