8
Lattice="4.009389880768521 0.000281791149263549 -0.0016708115076133634 -0.00028415124403307766 4.009065858905413 -5.089981032977757e-05 0.0011114981066579414 -0.0006943212627856042 10.949825478467414" Properties=species:S:1:pos:R:3:forces:R:3 structure_index=0 total_energy=-57.00813674926758 stress="0.03491459786891937 1.918520501931198e-05 0.0002071306953439489 1.927946686919313e-05 0.03203527629375458 0.00015209637058433145 0.00020705779024865478 0.00015205738600343466 -0.011024178937077522" pbc="T T T"
Eu       1.35292157       1.05869650       6.27582986      -0.00088428      -0.00144463       0.00759064
As       3.35661002       3.06326410       5.05535419       0.00001317      -0.00170945      -0.02331591
Mn       1.35193208       3.06385651       3.19745608      -0.00240648       0.00239140       0.00169538
Eu       3.35767277       3.06297423       0.11900006       0.00040025       0.00172335      -0.00829142
As       1.35366380       1.05836216       1.34012757       0.00046414       0.00187932       0.02041589
As       1.35373291       3.06185605       8.67254635      -0.00053819      -0.00260853       0.00110051
As       3.35853067       1.05938728       8.67184573      -0.00016925       0.00230851       0.00033317
As       3.35877327       1.05578061       3.19723672       0.00312058      -0.00254002       0.00047171
