11
Lattice="3.148196195524474 0.0020680200966246205 -0.658401378550882 -0.24559431138954382 5.047007821653435 -1.1842004904863843 0.03880770330949898 0.06710767854506351 7.876543700878022" Properties=species:S:1:pos:R:3:forces:R:3 structure_index=0 total_energy=-67.23577880859375 stress="-0.0009543560445308685 -0.0008835047483444214 -0.006148218642920256 -0.0008843509131111205 -0.007208723109215498 -0.0029343473725020885 -0.006148919463157654 -0.002934309421107173 -0.0339171439409256" pbc="T T T"
Fe       2.80642419       1.94042538       1.87460236       0.00742403       0.00239768       0.03111875
Fe       0.61613167       1.16763669       7.07449839       0.00082805       0.01003791       0.02282866
Fe       0.83846824       4.07023631       0.33582738      -0.00240473      -0.00538349      -0.02617887
H        1.76098038       0.85043019       4.68226710       0.00590244      -0.04341045       0.01449424
H        2.81895039       4.45875580       1.93686771      -0.00268615      -0.00940835      -0.02351958
O       -0.07965547       3.45699537       3.73103616       0.00092548       0.04296461      -0.01586613
O        1.91937703       1.44168359       5.44272733      -0.00215693       0.00973535      -0.01304456
Fe       1.76556697       3.59927977       4.70595454      -0.00685056       0.03985578      -0.01298253
O        0.45353966       4.19113250       6.30708039      -0.00493383      -0.01192130       0.01553425
O        0.95894560       2.05045132       0.88837559       0.00287849      -0.04093118       0.01838163
O        2.62302450       4.94848325       1.03545307       0.00107369       0.00606346      -0.01076581
