8
Lattice="4.017703533172607 0.0 -0.0020558189135044813 -0.0005654494054203565 3.9955684738592834 0.0002032092452282086 0.0 0.0 10.800253868103027" Properties=species:S:1:pos:R:3 pbc="T T T"
Eu       1.35390000       1.05659190       6.16293481
As       3.36346817       3.05371971       4.90690684
Mn       1.35474577       3.05301078       3.15375798
Eu       3.36507634       3.05176003       0.14403945
As       1.35571263       1.05394420       1.39886772
As       1.35564092       3.05246556       8.55413058
As       3.36491080       1.05565273       8.55329628
As       3.36458522       1.05252425       3.15560688
