11
Lattice="3.8235986154865533 0.06837044318602449 -0.32342354696544046 -0.13212389563013227 4.023439748849101 -0.729956080078553 1.057348670580843 0.14869905117273668 12.156602041627632" Properties=species:S:1:pos:R:3:forces:R:3 structure_index=0 total_energy=-47.857723236083984 stress="0.02548907697200775 -0.0008945856825448573 -0.0042719002813100815 -0.0008947021560743451 0.028736025094985962 -0.001056497567333281 -0.004272425081580877 -0.001056430977769196 0.024213114753365517" pbc="T T T"
Cu       2.31067747       0.12573799       3.74154064       0.03451854      -0.00109359      -0.00959901
Dy       4.45025327       1.25334729       9.57034655      -0.02540076       0.00183488       0.01442800
Cu       4.09103412       0.55540718       5.78057103       0.02949110      -0.00103465      -0.00706817
Cu       4.17805284       2.88850746       7.16161089       0.01165165      -0.00302383      -0.01745546
Cu       2.33343974       0.83523412       7.64538006       0.00590989      -0.00125165      -0.00486361
Dy       0.15364231       1.84710921       2.16789530      -0.00631956       0.00374562       0.01938143
Cu       2.42373899       3.16741004       9.02181402      -0.01419956      -0.00774964      -0.04008681
Cu       1.03790657       3.55914788      11.46231823      -0.01508333       0.00302983       0.02047003
Cu       1.98936976       3.71095593       0.64543817      -0.01626099       0.00341464       0.01615395
Dy       2.08957034       2.46973180       5.23351535       0.03516692      -0.00222036      -0.01457304
Cu       2.83161914       1.59511265      11.82426472      -0.03947391       0.00434872       0.02321268
