11
Lattice="3.6629092693328857 0.0 -0.6945970058441162 -0.3017783584716474 5.295334820143043 -1.5533843040466309 0.0 0.0 10.057344436645508" Properties=species:S:1:pos:R:3 pbc="T T T"
Gd       0.45997801       3.21277466       0.79763111
Gd       1.83730964       5.08050992       8.11043610
Gd       1.13596638       4.12894290       4.40212979
Gd       2.80808218       1.08663420       3.18607527
Gd       3.50362357       1.71770692       6.86158778
O        1.73085790       0.46958054       7.52078142
O        0.03835479       3.70332870       8.63459580
O        0.85909694       2.35286890       2.93049482
O        3.17159585       0.05103979       5.09731192
O        0.28057483       1.19044606      -0.18762092
O        2.26601321       4.51208954       0.33123706
