8
Lattice="3.4447606581487045 0.0003002656864161374 0.00037384195293712415 -1.7221904188283383 2.9834961477809383 0.0033560499427296915 -0.00033308389659259354 0.002183580563362057 12.033458536170407" Properties=species:S:1:pos:R:3:forces:R:3 structure_index=0 total_energy=-88.19612121582031 stress="0.00911655556410551 7.460820052074268e-05 -0.0002402790414635092 7.6014366641175e-05 0.009432746097445488 -0.0008897744701243937 -0.00024090640363283455 -0.0008919159299694002 0.04070468246936798" pbc="T T T"
C        0.43908991       0.24837680       4.67408731      -0.00002725       0.00277486       0.04807340
Gd       0.43928173       2.23696888       6.46790624       0.00050693       0.00252233      -0.00067036
Gd       0.43957158       2.23989743       3.32432666       0.00063402       0.00499240       0.04294285
Gd       0.43918091       0.24626952       9.36179855      -0.00039624      -0.00126182      -0.01391340
C        0.43937233       2.23406012      10.76643153      -0.00115947      -0.00225328      -0.00424179
N        2.15976804       1.24123992       1.10645723       0.00102935      -0.00407670      -0.04287882
Mn       0.43890474       2.23060037       0.43096167      -0.00074238      -0.00383448      -0.02455259
N        2.16160431       1.24124235       7.88105808       0.00015500       0.00113672      -0.00475894
