10
Lattice="3.749239683151245 0.0 0.02080172672867775 -1.9206445397754384 6.207003710036628 0.9510475993156433 0.0 0.0 10.49505615234375" Properties=species:S:1:pos:R:3 pbc="T T T"
Ti      -0.28680345       4.52172826       9.71066636
S        1.57386343       6.14594485       9.69038660
Bi       3.48999940       0.56263214       1.37866733
Bi      -0.28721218       3.42474244       5.07086610
S        1.57683598       5.41910138       4.65357411
S       -0.29543189       4.59776077       7.41664212
S        1.60033584       2.00050556       2.82813407
S        1.59783184       1.93223587       6.20238810
S       -0.29800463       4.88366625       1.69018847
S        1.59520597       2.88083896       9.88216040
