10
Lattice="3.7424531167891417 0.014304562076190378 0.01096978290510913 -1.8999433227328089 6.187436594093211 1.665343133648255 -0.03103755664787855 1.101071474147295 11.128678385207142" Properties=species:S:1:pos:R:3:forces:R:3 structure_index=0 total_energy=-47.817222595214844 stress="-0.014202723279595375 0.00018568387895356864 7.143224502215162e-05 0.00018578149320092052 -0.02187645062804222 -0.0018817922100424767 7.030385313555598e-05 -0.0018814974464476109 -0.017012158408761024" pbc="T T T"
Ti      -0.30280236       5.82577577      11.11075795      -0.00023223       0.03717935       0.00735452
S        1.55820907       7.42094614      11.24953616      -0.00051638       0.04453218       0.00495887
Bi       3.47759690       0.55772307       1.54283200       0.00035664      -0.01952127       0.00214574
Bi      -0.28477425       3.29815502       4.74099733       0.00044406      -0.03078358      -0.01358070
S        1.57725076       5.15966233       5.47422991       0.00065597      -0.04131088      -0.01318848
S       -0.30271693       6.38932799       8.62059830      -0.00061015      -0.00099009       0.02188510
S        1.59683051       1.92614937       3.00708878       0.00050854      -0.03125198      -0.00528010
S        1.58641127       2.16640472       6.81389183      -0.00026944       0.01018280      -0.01574510
S       -0.28394416       4.82226253       2.43351169       0.00015922      -0.01173735       0.00125174
S        1.57065929       4.31295930      10.84875101      -0.00049645       0.04370081       0.01019841
