8
Lattice="4.009370483764701 0.0002819961347306514 -0.0015876786351258466 -0.00028392375374479374 4.008946105426441 -1.8263826655727016e-05 0.0013351800717487428 -0.0006060932215085207 10.950230034431472" Properties=species:S:1:pos:R:3:forces:R:3 structure_index=0 total_energy=-57.0081787109375 stress="0.028911763802170753 1.617958514543716e-05 0.00010686804307624698 1.62720989465015e-05 0.025511234998703003 0.00016897353634703904 0.00010696215031202883 0.00016882603813428432 -0.020263521000742912" pbc="T T T"
Eu       1.35307205       1.05875115       6.27643174      -0.00099883      -0.00122475       0.00485587
As       3.35672856       3.06332903       5.05467085       0.00039641      -0.00181188      -0.01907222
Mn       1.35218728       3.06371813       3.19749807      -0.00214464       0.00214020       0.00262737
Eu       3.35763834       3.06279550       0.11894340       0.00052117       0.00166970      -0.00720708
As       1.35364419       1.05822693       1.34146774       0.00026495       0.00181257       0.01421754
As       1.35400267       3.06196911       8.67276427      -0.00022795      -0.00219967       0.00222383
As       3.35861648       1.05928858       8.67223240      -0.00049715       0.00184343       0.00082903
As       3.35860370       1.05590196       3.19726287       0.00268613      -0.00222960       0.00152573
