7
Lattice="4.075175762176514 0.0 -0.0036684460937976837 -2.0471023962422525 4.471332045123699 -2.208789348602295 0.0 0.0 7.0576982498168945" Properties=species:S:1:pos:R:3 pbc="T T T"
Al      -0.79204111       4.30549805       2.80514470
Al      -0.78571618       2.99456366       0.36510337
Fe       1.25377064       1.88067862      -0.47065798
Gd       1.25099888       4.25339279      -1.85886126
Al       3.28717380       1.68128276       4.97647283
Fe       1.24983217       4.10582821       1.19977013
Gd       1.25120211       1.72934143       2.59681816
