20
Lattice="5.365640447037721 0.05157459436599886 -0.5699490005566482 0.8303969151667623 5.219002478454099 -0.20500925150532054 -0.13833367625928203 -0.13528219516084725 8.884489917237053" Properties=species:S:1:pos:R:3:forces:R:3 structure_index=0 total_energy=-145.4267578125 stress="-0.0031743142753839493 -0.0004443502111826092 -0.0009130157995969057 -0.00044429965782910585 -0.0020331842824816704 -0.0011328797554597259 -0.0009125400683842599 -0.0011332769645377994 -0.001049109734594822" pbc="T T T"
Cu       4.41663713       4.96891413       7.14743341      -0.00903717       0.00620034      -0.00368121
Ca       5.39315808       1.76952022       2.94309531       0.00341757       0.00510544      -0.00223731
Mn       0.81690337       0.98382727       6.63705746      -0.00280803       0.00305251       0.00157130
Mn       2.71694094       3.32830903       2.20086000       0.00048770      -0.00252935       0.00287622
O        1.87800779       1.78792171       4.87399567       0.00166267       0.00827762      -0.00199160
O        2.11143828       5.07017506       2.73901909      -0.00213602      -0.00093198       0.00669041
Mn       4.52933871       2.37561397      -0.18023464       0.00196607      -0.00538672       0.00103381
O        5.16471599       2.97799355       6.78048045      -0.02121667       0.02283032      -0.00444044
Mn       2.69062518       0.12857550       4.28849678       0.00443998       0.00614864      -0.00822598
Mn       1.87213936       0.80812254       0.88742243       0.00460680      -0.00306940      -0.00349545
O        2.57062110       1.67206808       7.71059172       0.02174057      -0.04531203      -0.00535243
Mn       1.65688696       3.53226769       7.99881533       0.00047254      -0.00428232      -0.00279759
O        0.06900001       0.22368743       8.58583241      -0.00211753       0.02592343       0.00583550
Mn       3.54025892       2.62872393       5.58417264      -0.00371166      -0.00019901       0.00078209
O        4.36797314       0.95137717       4.94970943       0.00087273       0.00086778      -0.00026397
O        1.04163982       2.52534999       1.40964235       0.00579438       0.00450694      -0.00891562
O        4.09882871       3.58839639       3.58627455       0.00304899       0.00262541      -0.00263330
O        3.37020578       4.21969122       0.30522704       0.00881119      -0.00654900       0.01374100
O        3.51532068       1.64504159       1.64002808      -0.00183380      -0.01047696       0.01094836
O        2.80390245       4.36750452       6.14165603      -0.01446038      -0.00680196       0.00055606
