8
Lattice="4.718913555145264 0.0 -0.024347644299268723 -0.10998522198470179 4.4244024913078315 0.002925309119746089 0.0 0.0 10.072309494018555" Properties=species:S:1:pos:R:3 pbc="T T T"
O        2.00487662       2.21925668       1.19812750
Cs       4.43019076       0.01254777       1.44911974
Cs       2.00939470       2.21879649       4.23595401
O        1.97874568       2.22455998       7.26931972
O        4.40630487       0.00918524       4.22172530
Cs       4.41334369       0.00619572       6.99223085
O        4.00642133       2.21705650       9.26757852
Te       2.10814723       2.21575059       9.27650222
