8
Lattice="5.4261778417790865 -0.07919923061509336 -0.012467572590577798 -0.20072607628496855 4.649238551541703 0.00148338585508938 0.02131228805090724 -0.002234420344341811 9.288294668935293" Properties=species:S:1:pos:R:3:forces:R:3 structure_index=0 total_energy=-35.36458206176758 stress="0.01223671529442072 -0.006391821429133415 -4.383879513625288e-06 -0.006392206065356731 0.009331582114100456 -0.00011874196934513748 -4.251901373208966e-06 -0.00011949177860515192 0.018663842231035233" pbc="T T T"
O        2.20235636       2.92721257       0.78014645       0.00654304       0.00930303      -0.01738751
Cs       5.21074216      -0.44818687       1.23307540      -0.00536223      -0.02096598       0.00780511
Cs       2.46861140       2.27850305       3.90972567      -0.00691799       0.01625047       0.00000109
O        2.21630385       2.92598172       7.04146784       0.00689256       0.00902396       0.01700824
O        4.75735849       0.37633861       3.90399730       0.01582757       0.04300290       0.00006025
Cs       5.22263862      -0.44937488       6.57241614      -0.00515149      -0.02116489      -0.00748254
O        4.43776007       1.79735769       8.54918893      -0.01217502      -0.04555190       0.00011056
Te       2.54867851       1.84078299       8.55378922       0.00034344       0.01010239      -0.00011529
