12
Lattice="3.536048412322998 0.0 0.0005478342063724995 -0.0006452737521355293 4.772450880296576 -1.5931416749954224 0.0 0.0 7.96440315246582" Properties=species:S:1:pos:R:3 pbc="T T T"
Fe       0.41844878       0.44171925       6.69849003
Fe       2.18685077       2.84941717       1.85829835
Ni       0.41944068       3.62334274       0.31411856
Fe       0.41788794       4.42795901       2.71125527
Fe       0.41956006       1.21397176       1.10272979
Ni       2.18703152       4.41043569      -1.27804222
Ni       2.18766204       2.04323893      -0.50832039
Fe       0.41748592       2.03588037       3.52762731
Ni       2.18581314       3.61816186       4.32317297
Ni       0.41815641       2.82563288       5.89091703
Ni       2.18695345       0.44542061       2.68676133
Ni       2.18580843       1.23840676       5.09588316
