12
Lattice="5.493144512176514 0.0 0.00644136406481266 0.002976206961615819 7.356447094641937 0.023830188438296318 0.0 0.0 10.0030517578125" Properties=species:S:1:pos:R:3 pbc="T T T"
Eu       1.31853115       2.69194857       7.96475253
Eu       1.31747398       3.99202282       1.63247378
Eu       4.06562265       1.14571735       0.07889532
Sn       1.32076847       4.29497150       4.90322758
Eu       1.31956885       6.37452862       8.76770629
Eu       4.06815373       6.12646471       2.97453683
Eu       4.06396059       2.45491941       3.75385936
Sn       4.06727788       0.84984829       6.80996328
Sn       1.32097155       0.60681472       1.81232081
Eu       1.32031893       0.32234691       5.07506098
Sn       4.06481039       4.53113291       9.91390418
Eu       4.06248927       4.81989331       6.64608576
