10
Lattice="2.839578866958618 0.0 -0.01867668516933918 -1.4273611898889982 2.4471873548696896 -0.03198361396789551 0.0 0.0 14.293952941894531" Properties=species:S:1:pos:R:3 pbc="T T T"
Mn       0.25093039       2.41323101       6.52689845
C        0.25586736       0.78262267       9.72656362
Mn       0.25008224       2.41334799      10.76147305
C        1.67255060       1.59729904       5.47540172
Mn       1.67161708       1.59888969       8.67345308
Si       1.67210923       1.59868343      12.60991912
Mn       1.67575460       1.59933340       2.24910770
C        0.25252570       2.41168908       1.19246969
Mn       0.25605005       0.78234035       4.38870501
Mn       0.26025658       0.77926875       0.16446806
