6
Lattice="3.6209022998809814 0.0 2.093871593475342 1.2080331330594158 3.4149565870221643 2.0936150550842285 0.0 0.0 4.181461811065674" Properties=species:S:1:pos:R:3 pbc="T T T"
Be       0.52561343       1.44929024       1.97944446
Be       0.52564641       1.45008992       4.07693999
Be       2.34181880       1.45006727       3.02986390
Fe       2.33775470       0.17179336       5.12138967
Be       1.13142268       3.16304149       3.02981519
Ni       2.33807724       2.73176679       5.12055087
