7
Lattice="4.844470337142907 -0.01707669032634754 -1.6942681251463696 -2.381641455792027 4.2196765510668985 -1.6880965901197893 -0.0112834313772006 -0.025324012169281065 5.130150610586827" Properties=species:S:1:pos:R:3:forces:R:3 structure_index=0 total_energy=-67.33718872070312 stress="0.007980186492204666 0.02495628036558628 0.008465642109513283 0.024959703907370567 0.03372878208756447 0.014686529524624348 0.00846700556576252 0.014687872491776943 -0.0017726165242493153" pbc="T T T"
O       -0.76541666       2.54364637       2.17124976       0.00212299      -0.00216206      -0.00249709
Eu       2.85126318       0.44161194      -0.39479710      -0.01799711       0.00117756      -0.00476623
Eu       1.66369891       2.54069234       1.33006175       0.00286088       0.00765123       0.00208933
O        1.65904228       2.55433206      -1.23605022      -0.00344579      -0.00073902       0.00127803
Eu      -0.75190941       2.55570858      -0.38962509       0.00726093      -0.00779680      -0.00090178
O        0.43502020       0.44646319       0.45085936       0.00226974      -0.00184140      -0.00177408
O        2.84729368       0.43155123       2.17492008       0.00692854       0.00371033       0.00657187
