14
Lattice="5.0756449699401855 0.0 -0.3214735984802246 -0.9093420170509608 4.742427196204954 -2.2926058769226074 0.0 0.0 7.3859124183654785" Properties=species:S:1:pos:R:3 pbc="T T T"
O        2.10863106       0.62893536       5.45000610
Nb       0.51769763       3.90225953       4.18370547
N        1.21892302       2.33931294       3.08344930
O        3.09076400       2.26483854       0.23840174
O        2.11342109       4.28991241      -2.00110746
O       -0.41287514       2.40735757       5.52450230
Nb       0.44160469       0.88893932       4.14159701
Nb       3.67851717       4.01503298      -0.70186750
Nb       3.94485546       0.95360738       6.33984879
O        0.31344699       4.35261499       0.49716128
O        3.90287867       4.32775495       2.89539663
N        0.45849591       0.50772832       0.51584204
Nb       2.09270907       1.14478632       1.73897028
N        3.84038665       0.67795752       2.63873108
