14
Lattice="5.055424953862294 -0.060661647133187585 -0.36371758165551393 -0.9402651031621004 4.900912917249374 -2.2444117968119253 -0.06325495496886213 0.04932096051478884 7.357762877878533" Properties=species:S:1:pos:R:3:forces:R:3 structure_index=0 total_energy=-129.6561737060547 stress="0.001999134896323085 0.0016519376076757908 0.0012399827828630805 0.001653323764912784 0.000892800628207624 -0.0017758398316800594 0.0012365651782602072 -0.0017778497422114015 0.002440138952806592" pbc="T T T"
O        2.08420060       0.66984072       5.35983099      -0.00394681       0.01106772      -0.00954734
Nb       0.39870914       3.83608568       4.19211011       0.00770638      -0.01166129      -0.00262251
N        1.24249499       2.54923307       2.88132491      -0.00647432       0.01001227      -0.02112707
O        3.01227462       2.35734676       0.19187868       0.01037877       0.00497440      -0.02120331
O        2.05969664       4.29516730      -2.00609632      -0.00915238      -0.02198391      -0.00904018
O       -0.46426589       2.59977975       5.58838034       0.02864414       0.00310040       0.02493143
Nb       0.38861090       1.08265356       4.24400066       0.00443117       0.00845665       0.02029113
Nb       3.60886779       4.16471658      -0.60402128      -0.01556733       0.00007391       0.01900101
Nb       3.89759227       0.91971889       6.21111931       0.00602248      -0.01439869      -0.01792422
O        0.30463242       4.52357713       0.61203097      -0.00097281       0.00516859       0.00429827
O        3.75742696       4.24170787       2.87391792       0.00408161      -0.00704935       0.00655472
N        0.44021474       0.54780740       0.52577951       0.00345534      -0.01473380      -0.00111458
Nb       2.01770969       1.28474622       1.68721525      -0.01929724       0.00927401       0.00651294
N        3.76483842       0.67059990       2.63999024      -0.00930846       0.01769853       0.00098979
