12
Lattice="2.68441104888916 0.0 -0.0013582260580733418 -1.3478672025104574 4.460623208110829 -0.6872945427894592 0.0 0.0 11.039713859558105" Properties=species:S:1:pos:R:3 pbc="T T T"
Ni       2.01841759       0.75409511       4.54193340
Mn       0.67258129       3.78747499       1.93392287
Mn       0.67075515       3.85014625       7.82002229
Fe      -0.66769224       2.45669442       0.55570659
Mn       0.67708376       1.37220996       2.33103681
Ni      -0.66984371       4.29379746       5.80046115
Mn       2.01820254       0.08853875       0.50900099
Fe       2.01798284       1.78443702       7.45022122
P        0.67586353       2.33071515       5.64295940
P       -0.67154859       3.26094983       9.47031832
Fe      -0.67026297       3.01122727       3.69450521
Mn       0.67360106       1.29076243       9.66038297
