4
Lattice="3.0180298670094916 -0.013098127274729313 0.008436477412941483 0.01671451778854831 3.83346760228718 -0.0036517086403615334 -0.017309726028518827 0.006145211548652107 5.289020911548653" Properties=species:S:1:pos:R:3:forces:R:3 structure_index=0 total_energy=-25.84562873840332 stress="-0.07561129331588745 0.00040611770236864686 -0.0003552268026396632 0.0004059347847942263 -0.06645014137029648 0.012521608732640743 -0.0003551048575900495 0.012521994300186634 -0.10624130070209503" pbc="T T T"
Ni       1.60186154       0.37691263       3.35690891      -0.00065864       0.00105813      -0.04445465
Ga       1.60513736       2.29511781       4.77194782       0.00070574       0.00037362       0.00150210
Hf       0.10484857       2.29943272       2.12286638      -0.00379352      -0.00327754       0.00488912
Ni       1.60749178       0.37374436       0.90275167       0.00374640       0.00184583       0.03806339
