10
Lattice="4.000778440541225 -0.00620769884819042 0.008895286554372354 -1.9923458469878812 5.945521501666244 0.00744002322736491 -0.00988521017866353 -0.015210623934060594 7.898649587912466" Properties=species:S:1:pos:R:3:forces:R:3 structure_index=0 total_energy=-59.56847381591797 stress="0.021069379523396492 4.797946894541383e-05 -0.0003202617517672479 4.855145380133763e-05 0.019130248576402664 -1.3168038094590884e-05 -0.00031987240072339773 -1.4340861525852233e-05 0.02430371753871441" pbc="T T T"
Ge       0.89022100       4.25899473       4.24486981       0.00056474      -0.02481353       0.02287489
Pt      -1.10453265       5.01791216       2.77306406      -0.00021663      -0.02358134       0.02799027
Dy       0.89548264       2.62957170       1.63117699      -0.00043383      -0.00952564       0.00353108
Dy       0.88574168       0.41480670       5.57524427       0.00059847       0.00840398       0.00548109
Ge      -1.09940501       4.73572767       0.29146298      -0.00063159       0.02456533       0.02432612
Pt       0.89286890       3.96676873       6.72516772       0.00153063       0.02428922       0.02842432
Ge       2.89107356       0.71534998       2.99890400      -0.00167459      -0.03416830      -0.02372175
Pt       2.89491836       0.37716254       0.49255515      -0.00026501       0.03402597      -0.03328297
Ge       2.88928874       2.31676058       6.95126522       0.00179854       0.03534022      -0.02240088
Pt       2.88623969       2.66493797       4.44603538      -0.00127070      -0.03453618      -0.03322211
