13
Lattice="4.534628868103027 0.0 1.8260383605957031 2.2636273263460254 6.107755454533109 0.9136373996734619 0.0 0.0 6.565486907958984" Properties=species:S:1:pos:R:3 pbc="T T T"
Tb       1.42695827       0.82198884       1.38556284
Dy       2.82916897       4.60562263       4.45172886
Fe       2.16360158       2.80883491       6.11218836
Fe       5.14659628       2.91080712       5.23107425
Fe       6.39462647       5.66558288       8.68394595
Fe       5.44429590       5.54680955       4.49394894
Fe       4.21243832       2.22369402       7.56647136
Fe       3.22368993       2.00605839       3.47020110
Fe       4.46719549       4.74616291       6.93324245
Fe       2.54913142       3.80985864       1.77488735
Fe       3.64148767       0.88265914       5.62794332
Fe       4.87639172       3.81180740       2.71296032
Fe       1.43470059       0.87839192       4.74205831
