15
Lattice="5.94505875252306 -0.01788200594079734 2.4106220057762178 -0.1444869300377205 5.81344495221479 2.158221117455789 0.022909741259283623 0.0035342018256471477 6.885083268811752" Properties=species:S:1:pos:R:3:forces:R:3 structure_index=0 total_energy=-107.12288665771484 stress="-0.015060430392622948 -0.002021367661654949 -0.002893423894420266 -0.0020213350653648376 -0.020334497094154358 0.0036381094250828028 -0.0028932716231793165 0.0036381040699779987 -0.011385485529899597" pbc="T T T"
Mn       0.12255127       2.59955582       1.76970225      -0.00346342       0.01277280      -0.01527548
Mn       3.24572516       1.78804919       4.20417423       0.03768452      -0.01866191       0.00938097
Pt       5.15415075       5.75882138       6.54846392       0.00917056       0.01368991      -0.02394022
Mn       4.25536616       3.14380983       6.79811643      -0.01917939       0.02969577      -0.00387435
Pt       2.03942529       0.74617330       2.05374128      -0.03149061      -0.01815880       0.00351423
Mn       1.20742238       3.92890459       4.33701760      -0.01232205      -0.03521362      -0.01539096
Mn       0.77327579       5.47056251       8.80717775       0.00406220      -0.00768953       0.00961706
Pt       1.64813393       2.26512859       6.39457807      -0.00137025       0.00410546       0.00348340
Pt       4.85034841       1.51995558       8.91880436       0.03663230      -0.00734536       0.00634197
Mn       0.44992975       1.07019998       4.21831165       0.00530048       0.03266625       0.01349667
Au       3.69536549       0.38218277       6.64133768      -0.01359986      -0.02332544       0.00888825
Pt       2.64509112       3.45169063       8.95380769       0.00291762      -0.01061092      -0.00524884
Pt       2.29678109       5.03510795       6.56784292      -0.02552145      -0.00499187      -0.00169725
Pt       5.58440281       4.21000148       8.90981330       0.02471703       0.00153899       0.00428559
Au       4.00608438       4.43753311       4.34986331      -0.01353769       0.03152824       0.00641883
