20
Lattice="5.293330192565918 0.0 -0.48299339413642883 0.7744448152399168 5.365258882426888 -0.10962332040071487 0.0 0.0 8.813763618469238" Properties=species:S:1:pos:R:3 pbc="T T T"
Cu       4.44059270       5.14096984       7.22893790
Ca       5.33879619       1.79761153       3.04176454
Mn       0.89882831       1.09936951       6.63367702
Mn       2.69216362       3.51871386       2.24460788
O        1.85037273       1.80435455       4.93520963
O        2.12205767       5.29663581       2.77332592
Mn       4.43917977       2.45044435      -0.07940557
O        5.27446227       3.00715483       6.97590003
Mn       2.70450198       0.11865379       4.34297692
Mn       1.86596941       0.84337925       0.91275686
O        2.65893181       1.99570318       7.75899285
Mn       1.73438886       3.75199233       8.05397402
O        0.20141910       0.24088505       8.43527223
Mn       3.54119471       2.75827488       5.66586360
O        4.37924661       0.96505676       5.03584548
O        0.96526724       2.63996440       1.39430951
O        4.04524394       3.69358637       3.72479710
O        3.31423102       4.33394481       0.30638459
O        3.55011495       1.80915643       1.61997706
O        2.82448571       4.62893239       6.24433091
