10
Lattice="3.9432380199432373 0.0 0.014226105064153671 0.021057386418869013 3.933360478081379 0.01677294448018074 0.0 0.0 18.000686645507812" Properties=species:S:1:pos:R:3 pbc="T T T"
Gd       3.39839793       3.41044830      17.10198510
Gd       3.38872722       3.41432089       6.88035893
Gd       1.40783244       1.44457960      14.59710206
Co       1.40773996       1.44967366      11.96814603
La       3.39158869       3.41430495      11.90312966
Gd       1.40817588       1.44772974       9.19143104
Co       1.41449571       1.44342003       0.86997134
I        1.41052784       1.44616411       4.77082018
Co       3.39104845       1.44765542       0.83381372
Dy       3.39622562       3.41749436       2.58455446
