20
Lattice="4.849722353684605 0.06884005357454721 1.7699912300406773 0.7819637307354061 4.996624618022202 2.060236635494382 0.07126364649406643 0.09268006291241589 8.179000165786087" Properties=species:S:1:pos:R:3:forces:R:3 structure_index=0 total_energy=-107.9422607421875 stress="-0.02340972051024437 0.00699501670897007 -0.0011640030425041914 0.006998142227530479 -0.0291737150400877 -0.001655455562286079 -0.0011660185409709811 -0.0016587228747084737 -0.01949002407491207" pbc="T T T"
Li       3.57003706       3.64590119       7.44824975       0.00190849       0.00215711       0.00596286
O        0.61620074       0.14114425       7.64310709       0.01039890      -0.01268603      -0.02108207
Li       0.93219071       0.66687101       3.12270797      -0.01508248      -0.00159702      -0.02008057
Li       1.52579091       2.97519228       5.22448874       0.00350547      -0.03462758       0.01504321
Li       2.75322260       2.25183629       2.03564800       0.00735877       0.01237907       0.01258413
H        2.42106038       5.05694195       9.64934597       0.02239344      -0.01026690      -0.04288915
O        3.95088071       4.92797470       9.12186542      -0.00284296       0.00402750      -0.00650363
Mn       4.62633091       3.88516640       4.54957621       0.00674184      -0.00266967       0.00803968
O        5.00908554       4.77604506       6.22972366       0.00350107      -0.00411141      -0.00496890
H        3.69188999       0.59636436       4.22005461      -0.01705868      -0.00747928      -0.04027532
Mn       5.46005165       3.90296592       9.79393246      -0.00516233       0.00470035       0.00471675
F        1.26897513       2.53338812       3.31822583       0.00114620      -0.00510611       0.01741727
H        0.41519292       1.05968771       7.30325732       0.00079102       0.00242296      -0.00962745
H        3.41167908       0.84275322       6.79804315      -0.00869055       0.01822481      -0.02408247
F        3.32521984       2.58698994       5.57668321       0.00436372      -0.00533448       0.03463553
F        2.17235770       2.74541553       8.49970525      -0.00457157       0.00394601       0.01436840
O        4.32921402       2.99793671       2.93018775      -0.01183172       0.00397494       0.02015188
F        5.04012688       2.48420647       8.18878297      -0.00863929       0.01370361       0.03246897
F        1.87318958       4.65734424       6.74792417      -0.00060430       0.01035558      -0.00393689
F        2.52184384       0.33786385       2.17277719       0.01237488       0.00798611       0.00805769
