10
Lattice="3.7468361854553223 0.0 1.183561086654663 1.529771385582819 4.269095390090307 1.70759916305542 0.0 0.0 6.537974834442139" Properties=species:S:1:pos:R:3 pbc="T T T"
Mn       2.73410864       1.97057158       2.25385213
Si       2.01119789       2.71926934       4.55066642
Mn       1.25437806       0.49615826       6.93355006
Mn       3.54592888       1.83482910       6.20514290
Mn       2.04461064       0.29950291       4.41975365
Mn       4.23222317       3.50562215       4.03760536
C        3.15860520       3.27197050       7.44486044
Mn       1.27667922       3.31335630       6.87755142
C        3.12074440       0.53791608       7.55157723
Si       0.51853590       1.09461102       2.72528598
