20
Lattice="3.2872700733432034 0.00018514664161029996 -0.0034536020175645055 -1.6453392137983223 6.7788130472223065 0.14484092593254252 0.003242673885523648 -0.04632055863410197 10.888730235165953" Properties=species:S:1:pos:R:3:forces:R:3 structure_index=0 total_energy=-175.4989776611328 stress="0.0063456273637712 0.0001855441223597154 0.0009176902240142226 0.00018554259440861642 0.009505057707428932 -6.929838855285197e-05 0.000917649595066905 -7.176533836172894e-05 0.009159384295344353" pbc="T T T"
Eu       0.40141532       2.91269610       6.72558705       0.00108687      -0.00732377       0.00598190
Hf       2.04234174       4.89172075       3.72220545       0.00110333      -0.00247917       0.00431538
Mn       0.40411794       4.27370798       9.47153170      -0.00244416      -0.00185649      -0.00548674
Mn      -1.24440258       6.18205067       0.99403491       0.00099812       0.00333432       0.01041138
O        2.04536262       4.29611580      10.88728693      -0.01027486       0.01549769       0.01104454
Eu       0.39799646       2.66174523       1.27925896      -0.00152410       0.01295052       0.00967266
O        0.39770790       4.86424676       2.41627244      -0.00109939      -0.00009449       0.00124502
O        2.04263419       2.76219308       2.98078196       0.00079844       0.01218221      -0.01287442
Eu      -1.24240716       6.24962824       6.94179190      -0.00032231      -0.00226769      -0.00324773
O        0.39911430       6.00223188       4.82309444       0.00158144       0.00320968       0.00114130
Mn       2.04340180       1.00845779       3.89033242       0.00054007       0.00206614      -0.00220887
O        0.39984351       0.31308830       2.75330867       0.00299242       0.00425398      -0.00715826
Mn       2.04606070       1.14706377       9.33669211      -0.00105698      -0.00885099      -0.00244807
O        0.40562711       6.07317668       8.90763862       0.00271490      -0.00791134      -0.04892343
O        2.04366656       0.79131317       0.35064110       0.00015978      -0.02500170      -0.00369605
O        2.04912123       4.10851871       8.15049025       0.00812446      -0.01777236       0.00105423
O        2.04528382       1.27749662       7.37622719      -0.00080748      -0.00031582      -0.01243436
O        2.04350159       4.03673264       5.51507316      -0.00011131       0.01911701       0.01668717
O        0.40371963       2.32422821       9.58938756      -0.00078337      -0.00659460       0.02936441
O        0.40015994       1.37786249       5.03052966      -0.00167588       0.00785637       0.00756027
