8
Lattice="3.7961151599884033 0.0 -0.003829947439953685 -1.8959132383288662 3.2851240350700315 0.0014340723864734173 0.0 0.0 11.449803352355957" Properties=species:S:1:pos:R:3 pbc="T T T"
Zn      -0.44649997       2.88328787       6.32064781
Eu       3.35247486       0.69366223       3.54854591
Zn      -0.44214631       2.88323442       0.37188398
O       -0.44646010       2.88405642       9.89393875
O       -0.44618896       2.88330921       4.42131323
Eu       1.45184376       1.78900790       8.96625489
S        1.45297977       1.78872025       1.35033653
O        3.34945221       0.69211941       7.08792638
