10
Lattice="3.779381036758423 0.0 0.5503514409065247 1.8523845642306827 3.300701981724786 0.5504316091537476 0.0 0.0 13.113118171691895" Properties=species:S:1:pos:R:3 pbc="T T T"
Eu       1.85406554       0.98416598       6.44908381
Gd       0.46416008       0.17063985       2.75081716
O        1.49571629       0.77547024       8.90756143
O        4.84554897       2.74035596      12.34926815
O        5.54185832       3.14625366       7.63843859
O        4.30719040       2.42388396       2.87735849
O        2.17382125       1.17216291       4.27307558
O        0.81380576       0.37676457       0.41319980
Eu       5.17964355       2.93526348      10.12494776
Gd       2.80705438       1.54394677      13.12814646
