14
Lattice="5.992477893829346 0.0 3.278312921524048 2.0156296356623926 6.006999432603877 3.4101486206054688 0.0 0.0 6.832261562347412" Properties=species:S:1:pos:R:3 pbc="T T T"
Ti       1.48982671       2.65004729       4.58683259
S        2.48150597       1.25198066       2.84597245
Mg       2.50574650       5.65810636       9.71516091
Ti       4.48946913       2.66156166       9.64896959
S        2.51326801       1.23256218       6.27438843
Ti       1.49003218       2.65532309       8.00976519
Mg       5.49633609       5.65961050       7.93854375
Cr       4.48766164       2.65460807       6.22942530
S        5.48557396       1.28801038       7.90427374
S        6.49316130       4.05258358       9.60925631
S        5.47870805       1.25432568       4.51596707
S        3.49552948       4.03062181       4.55275518
S        3.49581163       4.06801819       7.94031379
S        6.46154583       4.08599384       6.18802030
