14
Lattice="6.034240792242982 0.008484451627287202 3.3415376674866706 2.0478194733701023 6.18541955930588 3.458299460676737 0.03647545901514498 0.005574687059500647 6.8973528531796715" Properties=species:S:1:pos:R:3:forces:R:3 structure_index=0 total_energy=-86.63391876220703 stress="0.010458827950060368 -0.0014109573094174266 0.0071547371335327625 -0.0014114412479102612 -0.023118335753679276 -0.002923201071098447 0.007155844941735268 -0.002922479761764407 0.017510462552309036" pbc="T T T"
Ti       1.52421943       2.73614978       4.64066190      -0.00082622       0.00327249       0.01189139
S        2.51871961       1.30062035       2.89990999       0.01723978       0.02317400       0.02537066
Mg       2.57050538       5.83343945       9.82450124      -0.00685478       0.00868472      -0.00271566
Ti       4.55939286       2.74847107       9.76380795       0.00548050      -0.01175265      -0.00397899
S        2.55149582       1.27053290       6.35282258       0.00523151       0.00828602       0.02779515
Ti       1.54256444       2.74248769       8.09614397      -0.00159430      -0.00665692      -0.00883778
Mg       5.56654023       5.83571205       8.04724474       0.00028007       0.00223502      -0.00198815
Cr       4.54320680       2.74388508       6.31543756       0.00544156      -0.00663355       0.00264669
S        5.55591698       1.32664701       8.02340817       0.00270921       0.00713558       0.01383047
S        6.56742888       4.18189731       9.72805913      -0.02018884      -0.01436798      -0.02125105
S        5.52979843       1.27695017       4.58623998       0.02386452      -0.02276191       0.01808268
S        3.52867207       4.15905373       4.60774363      -0.00729431      -0.01031437      -0.01203319
S        3.55243770       4.21121340       8.04253926      -0.01615804       0.02302304      -0.01453334
S        6.53363285       4.21791062       6.27883050      -0.00733060      -0.00332342      -0.03427892
