8
Lattice="4.2259674072265625 0.0 0.6468582153320312 2.1718775112612434 3.6723797614150158 -0.015292183496057987 0.0 0.0 14.117881774902344" Properties=species:S:1:pos:R:3 pbc="T T T"
Sr       3.49390899       0.48170979       2.38548854
Mn       1.95100830       1.38736768      12.46963346
Te       3.84859934       2.74760099      14.21977120
Mn       2.99340883       3.25007751       5.74694271
Mn       4.58396232       2.31597157       9.42652063
Te       0.06964236       0.01486044      10.60258775
Te       2.68957820       0.94860067       7.61206898
Te       5.31571025       1.89125517       4.65392871
