8
Lattice="4.199237161940789 -0.004729094645194114 0.6428588182645208 2.1528141525158957 3.6620357962639902 -0.007252643997004107 -0.022979019399838336 0.044758381280789704 14.1807171399025" Properties=species:S:1:pos:R:3:forces:R:3 structure_index=0 total_energy=-45.00314712524414 stress="0.007473178673535585 -0.0037986894603818655 0.0024454514496028423 -0.003798695979639888 0.012226483784615993 0.00415063975378871 0.0024456758983433247 0.004151036497205496 -0.0149286650121212" pbc="T T T"
Sr       3.47005572       0.48339859       2.38920997       0.00240777      -0.00025427      -0.00670450
Mn       1.91648741       1.42020191      12.52785678       0.00609409      -0.00521727      -0.03984229
Te       3.80736256       2.77533210      14.22119190       0.00470044      -0.00228318      -0.02566218
Mn       2.95709046       3.25796071       5.77556834      -0.01114526       0.00425410       0.03826863
Mn       4.53496989       2.33566930       9.47038727      -0.00259394       0.00192628       0.00453589
Te       0.05587475       0.04563651      10.63213655       0.00583894      -0.00399048      -0.02502866
Te       2.65823469       0.96955316       7.67210849      -0.00123510       0.00422504       0.03634303
Te       5.26401042       1.89827299       4.72793427      -0.00406688       0.00133983       0.01809013
