16
Lattice="3.067870613396136 0.044586649700034946 0.37009779912096075 1.6320677127670533 5.236603977818476 0.08391892233163303 -0.20901967482970865 -0.046444961474079526 11.385714856245468" Properties=species:S:1:pos:R:3:forces:R:3 structure_index=0 total_energy=-111.33660888671875 stress="-0.027562882751226425 0.002956860698759556 -0.0010982314124703407 0.002960095414891839 -0.028881559148430824 -0.0014922205591574311 -0.0010968151036649942 -0.0014933358179405332 -0.03148609772324562" pbc="T T T"
Mn       2.84142911       2.83085863       2.95812584       0.01018740      -0.01415475      -0.02046232
Mn       1.52460654       0.42242149       1.50172433       0.00898927      -0.02564079      -0.00744280
Fe       2.04303590       1.65726466       7.81949007       0.01421396       0.03931512       0.01113885
Mg       3.19336721       1.27102865      10.69198582       0.00223604      -0.00286688      -0.02460880
O        2.20300866       0.42811798       6.23430783      -0.03385337       0.01261781       0.01968920
Mn       2.54615180       0.02152853       4.30777311      -0.01380457      -0.00191298       0.00428845
O        3.25377748       1.70291100       1.27962087       0.01440775      -0.01975908      -0.00300542
O        3.24369918       5.16077377      11.05640409       0.01389707       0.01700324       0.01358023
Fe       2.25478243       4.36557936       6.62658665      -0.02070500       0.02101181       0.02279328
Fe       3.41155340       4.02299754       9.51344911       0.02714747       0.00922933       0.01219759
O        1.81559853       2.60070011       9.69637988       0.03774962      -0.00486830       0.01066458
O        0.36870642       0.05088831       8.44654814      -0.03079081       0.00213206       0.00994353
O        3.66248106       3.22372048       7.57960714      -0.00715865       0.00349057      -0.01784724
O        1.30043361       4.33969142       2.22279823       0.01540536      -0.01756963      -0.01085830
O        2.40652923       3.93270258       4.70803230      -0.02348053       0.00286560      -0.00460529
O        1.32030525       1.26694412       3.36430948      -0.01444060      -0.02089322      -0.01546566
