8
Lattice="2.835542917251587 0.0 -0.00029454202740453184 0.003582108848067621 5.108133490564151 -2.549149990081787 0.0 0.0 6.354551792144775" Properties=species:S:1:pos:R:3 pbc="T T T"
Fe       1.81913996       3.04412825      -0.02816395
Co       1.81994483       4.34202776       2.49559380
Fe       1.81807728       1.77720917       3.74840601
Co       1.81723866       0.48251526       1.21851876
Fe       0.40008622       1.12507079       5.68281837
Fe       0.40171534       4.96497241       0.58330586
Co       0.40055106       2.41144275       1.86245995
Fe       0.40199474       3.69570816       4.39061823
