4
Lattice="3.7143767002353503 -0.0005621869417844104 0.0010934820439372568 0.0009492071995652368 3.714391340733258 -0.0013244449355529354 -0.003396420449306416 0.0038642780409649594 10.759691416624117" Properties=species:S:1:pos:R:3:forces:R:3 structure_index=0 total_energy=-29.528480529785156 stress="0.00462465500459075 0.0004369107191450894 1.782256549631711e-05 0.000436894508311525 0.0046952650882303715 -2.9335529688978568e-05 1.7785376257961616e-05 -2.9363862267928198e-05 -0.04940809682011604" pbc="T T T"
Eu       3.24779513       2.16068956       8.96859157      -0.00096053      -0.00010624      -0.00288070
Eu       3.24691545       2.15918610       3.73628142       0.00043886      -0.00031384      -0.00552239
Pr       1.39118628       0.30058702       0.96494116       0.00010766       0.00025960       0.00813589
Dy       1.38899851       0.30275446       6.35283791       0.00041401       0.00016048       0.00026721
