4
Lattice="4.142388740633401 0.0056998168434203664 2.3888072861820118 1.3790345773067674 3.906481359539162 2.387001604755647 0.0032502187675820782 0.0027768890480489865 4.781436520420967" Properties=species:S:1:pos:R:3:forces:R:3 structure_index=0 total_energy=-18.960308074951172 stress="-0.020333068445324898 0.006402456201612949 0.004664619453251362 0.006402416154742241 -0.021778279915452003 0.0001834312715800479 0.004664666019380093 0.00018328649457544088 -0.009456243366003036" pbc="T T T"
Li       3.95110492       0.84012871       5.74134108      -0.00044123       0.00245210       0.00480537
Ga       2.56493875       2.78902206       3.34767667       0.00948301       0.00407014       0.01455804
Sc       3.94823345       3.76862363       5.74207275      -0.00175895      -0.00191618      -0.01711458
Sc       1.19004606       1.81435643       5.74249020      -0.00728281      -0.00460610      -0.00224884
