10
Lattice="5.17951494466919 0.3283051240237008 0.2440703646457484 3.176286967084241 5.478537169145084 0.2337768950133518 0.09310546525431689 0.04826856553372204 5.366567398901452" Properties=species:S:1:pos:R:3:forces:R:3 structure_index=0 total_energy=-44.61113739013672 stress="-0.01075646374374628 -0.009381855838000774 -0.005978737957775593 -0.009380060248076916 -0.027883268892765045 -0.010221300646662712 -0.005976913496851921 -0.010221731849014759 -0.006667175330221653" pbc="T T T"
Zn       3.32056465       1.29521462       1.53251401       0.00003945      -0.00004185       0.00001487
V        2.36552769       3.89445121       4.21066267       0.00002747      -0.00001213      -0.00001393
F        3.09548351       3.05937043       0.29096864       0.01427092      -0.02447193      -0.00112021
F        3.91472251       4.50005249       3.62400712       0.02692258       0.00257099      -0.01143160
F        1.56726731       0.72138095       1.00480965       0.00275889       0.00869223      -0.02625722
F        4.13881165       0.29642608       5.19821069      -0.01311666      -0.04176241       0.01293789
F        5.99585663       3.61713943       5.04139676      -0.02693909      -0.00256661       0.01141128
F        2.59548549       2.34223149       3.23341358       0.01306842       0.04177082      -0.01296731
F        5.07390477       1.86894229       2.06019794      -0.00275022      -0.00863696       0.02629901
F        6.72198347       5.00956054       3.00786830      -0.01428176       0.02445762       0.00112714
