15
Lattice="5.901508331298828 0.0 2.382608413696289 -0.13196241915928006 5.837307094159396 2.1481642723083496 0.0 0.0 6.86115837097168" Properties=species:S:1:pos:R:3 pbc="T T T"
Mn       0.13734785       2.59284136       1.76082812
Mn       3.20378715       1.80291425       4.17503962
Pt       5.12221553       5.80676715       6.48811839
Mn       4.22445218       3.14728114       6.74693333
Pt       2.02700522       0.74332557       2.03004270
Mn       1.20702693       3.96623683       4.34017234
Mn       0.75482495       5.50257782       8.76177282
Pt       1.60803169       2.28762871       6.36795150
Pt       4.79164250       1.52818983       8.88339978
Mn       0.43064988       1.06022311       4.19989427
Au       3.64952654       0.39689611       6.60562303
Pt       2.60001662       3.49921336       8.90756407
Pt       2.29228837       5.05935329       6.54570005
Pt       5.53785977       4.23601495       8.86532876
Au       3.98870685       4.46754277       4.32147379
