10
Lattice="4.856232166290283 0.0 0.9470962285995483 -0.030909316096255905 5.062532957921386 1.1823302507400513 0.0 0.0 5.6926188468933105" Properties=species:S:1:pos:R:3 pbc="T T T"
Mn       2.48064951       3.26267059       4.15287966
F        3.91530343       4.33735073       5.32843587
Mn       0.77790787       1.85349128       1.21027509
F        3.64856462       3.05704477       2.24715016
F        4.56393262       0.58270790       6.66508956
F        2.00068912       5.05148974       2.96008074
F        0.94428330       2.38140479       3.12679574
F        1.57609849       3.71421735       6.15887336
Cr       3.07939684       4.72165623       7.02225580
F        2.42516165       1.39062926       5.25552066
