16
Lattice="3.0678704834767863 0.04458681347351249 0.37009791554189786 1.6320678554650567 5.236603462324516 0.08391943161046485 -0.20901934428246627 -0.04644395008957479 11.38571559064142" Properties=species:S:1:pos:R:3:forces:R:3 structure_index=0 total_energy=-111.33661651611328 stress="-0.02755686454474926 0.0029606882017105818 -0.0010941234650090337 0.0029620598070323467 -0.028939124196767807 -0.0015006468165665865 -0.0010943065863102674 -0.0015033878153190017 -0.031482718884944916" pbc="T T T"
Mn       2.84142869       2.83085986       2.95812722       0.01019018      -0.01416390      -0.02047336
Mn       1.52460508       0.42242293       1.50172490       0.00899777      -0.02564469      -0.00746283
Fe       2.04303570       1.65726297       7.81948961       0.01421223       0.03933521       0.01115768
Mg       3.19336642       1.27102916      10.69198744       0.00223225      -0.00286778      -0.02460678
O        2.20301167       0.42811737       6.23430677      -0.03386263       0.01263930       0.01970316
Mn       2.54615291       0.02152909       4.30777335      -0.01380338      -0.00191191       0.00429563
O        3.25377556       1.70291250       1.27962097       0.01441246      -0.01976730      -0.00300401
O        3.24369810       5.16077228      11.05640434       0.01389557       0.01702964       0.01361598
Fe       2.25478493       4.36557859       6.62658696      -0.02070983       0.02100582       0.02279560
Fe       3.41155152       4.02299704       9.51344928       0.02715396       0.00921907       0.01219848
O        1.81559617       2.60070144       9.69638120       0.03776135      -0.00488716       0.01064859
O        0.36870867       0.05088826       8.44654879      -0.03079922       0.00215414       0.00993612
O        3.66248231       3.22372253       7.57960911      -0.00716053       0.00346091      -0.01785009
O        1.30043361       4.33969223       2.22279985       0.01540449      -0.01757032      -0.01087101
O        2.40653163       3.93270245       4.70803306      -0.02348572       0.00286618      -0.00461319
O        1.32030534       1.26694599       3.36431074      -0.01443878      -0.02089769      -0.01546997
