10
Lattice="5.704985618591309 0.0 0.13194116950035095 3.1885102246836823 4.8943568241084225 0.12183978408575058 0.0 0.0 5.07737398147583" Properties=species:S:1:pos:R:3 pbc="T T T"
Zn       3.56895500       0.99560809       1.37761871
V        2.30901302       3.44265391       3.91044469
F        3.20555396       2.76639098       0.33194635
F        3.90315568       4.02532984       3.25397566
F        1.94825031       0.33350049       0.75657175
F        4.58954144       0.19920003       4.79266816
F        6.42454288       2.85990680       4.71038554
F        2.55077158       1.78829756       3.04620866
F        5.18702577       1.66005289       1.99483956
F        7.11583432       4.12557549       2.54810910
