17
Lattice="2.670353361960711 -0.0008194135770303837 0.0003026920445771091 0.0020624302742949085 6.652775083772852 -0.03261354539296821 -0.0013957975427881268 -0.02812860357223707 9.486850870889358" Properties=species:S:1:pos:R:3:forces:R:3 sample_seed=85000 sample_index_within_seed=0 benchmark_method=TCL dft_verified=F structure_index=0 total_energy=-146.9847412109375 stress="-0.01941739208996296 -9.781530025065877e-06 1.1704546523105819e-05 -9.781530025065877e-06 -0.02061632089316845 0.004494659136980772 1.1704546523105819e-05 0.004494659136980772 -0.02665974199771881" pbc="T T T"
Mn       2.00116126       3.62322948       0.97783747      -0.00028413      -0.01049104       0.03058586
Mn       2.00011860       0.49607680       2.51941956      -0.00040677      -0.01862463      -0.03748430
Mn       0.66587244       4.85813064       2.89098135      -0.00008631       0.01641291      -0.00843337
Co       1.99913873       0.15340535       8.50634103      -0.00080508      -0.03208470      -0.00224566
Mn       0.66518128       3.91941744       5.43931438       0.00052573       0.01814441      -0.01062238
Mn       0.66531382       4.63538886       7.87560973      -0.00010026       0.04024611      -0.02469382
Mn       0.66547289       1.67308423       0.46299175       0.00023860      -0.04210824       0.00730010
Co       0.66680139       5.83737097       0.79960295       0.00010097      -0.02325132      -0.02481860
Mn       1.99976285       2.41703154       7.56773817      -0.00023887      -0.03294224       0.03301960
Mn       0.66402105       0.13289383       6.45805435       0.00002559       0.02396630       0.01568405
Mn       0.66522017       2.55609086       2.84500373       0.00011212      -0.00506651       0.02136281
C        2.00046020       5.03822718       9.22634402       0.00002715      -0.05045858      -0.00457475
Mn       1.99980258       1.74095440       4.82295038       0.00028785       0.00561261       0.01119608
Co       2.00109098       5.91066026       4.56594846       0.00031300       0.02041700       0.00521961
C        2.00055533       3.68264662       3.85473783       0.00029272       0.02991209      -0.01390274
C        0.66459312       2.07328159       6.17957447       0.00009497       0.02634908       0.00847542
C        2.00076892       5.21271515       6.39903829      -0.00009717       0.03396744      -0.00606784
7
Lattice="6.119656492551152 0.0488401774361703 -1.9708140078307796 -2.8607795498912374 5.264325825577581 -2.3553726577175453 0.014249374614323814 -0.16976385923512496 6.434529888930957" Properties=species:S:1:pos:R:3:forces:R:3 sample_seed=85001 sample_index_within_seed=0 benchmark_method=TCL dft_verified=F structure_index=0 total_energy=-57.9515266418457 stress="-0.018458999693393707 0.019965844228863716 0.016171472147107124 0.019965844228863716 0.02668178640305996 0.013527791947126389 0.016171472147107124 0.013527791947126389 -0.0066914320923388" pbc="T T T"
Eu       0.88719301       1.77081528       4.94712341      -0.00287000      -0.00676055      -0.00505061
Eu       3.94034168       1.87487744       0.74383176      -0.00140855      -0.00281965       0.00824109
Ge       3.94779804       1.79637100       3.96501429      -0.00707148      -0.00880573      -0.01064751
Ge       2.50826056       4.50749835      -0.43478234       0.00521391       0.00362201       0.00042194
Eu      -0.55074224       4.48210326       0.55427006       0.00540783       0.01261234       0.00421790
Eu       2.52050933       4.42562140       2.78033774      -0.00265906       0.00286939       0.00276959
Cl       0.88117562       1.84776293       1.72741356       0.00338733      -0.00071780       0.00004759
19
Lattice="5.420675256744698 -0.0023842119300035154 -3.488698252746483 -2.5448938606009235 5.45915371900313 -2.1663334858539445 0.17534012135241422 0.1317650915322097 6.274455420835926" Properties=species:S:1:pos:R:3:forces:R:3 sample_seed=85002 sample_index_within_seed=0 benchmark_method=TCL dft_verified=F structure_index=0 total_energy=-170.0886993408203 stress="0.01309762243181467 0.0005047079175710678 -0.0018851222703233361 0.0005047079175710678 0.009641505777835846 -0.0008750493871048093 -0.0018851222703233361 -0.0008750493871048093 0.007914059795439243" pbc="T T T"
Fe       1.72173834       1.06600064       1.43305345      -0.01396012      -0.01210102       0.00078897
Mn      -1.60134451       4.86443087       3.64675004       0.00350161      -0.00090921      -0.02705646
Mn       0.80721066       3.12498466       3.00272396      -0.00080180      -0.00052147       0.00472184
Fe       1.99419916       5.19523682      -4.26180361       0.02050158       0.00771622      -0.00515871
Mn      -0.26007874       4.82389413       1.25893408       0.01717800      -0.00326613       0.00178370
Mn       1.14942718       1.67079929      -0.87708391      -0.00926799       0.00980733       0.00620571
Fe       2.64082864       1.41963073      -2.53620798      -0.00867675      -0.00310976       0.00009047
Mn       1.65213380       3.49933638       0.57274244       0.00378048       0.00684487      -0.00479148
Mn       0.21870071       0.78200829       3.39027477       0.00399249       0.00092667       0.01550628
C        4.37154357       3.52240070      -1.16641779       0.00619330      -0.00620220      -0.00155371
Mn      -0.49919535       2.18185706       0.97667981      -0.00618207       0.00335363       0.00329575
Mn       3.17880731       2.95555758      -4.17308159      -0.00305858      -0.00173095      -0.00655147
Mn       4.16933466       0.50928203       1.86825706      -0.00163063       0.00243151       0.00058049
C       -1.66152825       4.79144420      -0.16797340      -0.00665565      -0.01965966       0.04601111
Mn       3.56715350       2.20576180      -0.12346759      -0.00486708      -0.00339654      -0.00140376
Mn      -0.01773814       3.96294060      -0.97365361      -0.00935563       0.00765672      -0.00101430
Mn       3.06972145       0.02284551      -0.43739578       0.00212677       0.00261420      -0.00512345
Fe       2.50722935       3.89215297      -1.84265971       0.00998583      -0.00020511      -0.01576135
C       -0.42477274       2.26537481       4.74885898      -0.00280341       0.00975106      -0.01056955
11
Lattice="6.377079198102388 0.0715808530126791 -0.7854805331913923 0.4008083828823842 6.174093783625217 -3.356849196918644 0.0968346262505137 0.2515959076028128 9.424262504955758" Properties=species:S:1:pos:R:3:forces:R:3 sample_seed=85003 sample_index_within_seed=0 benchmark_method=TCL dft_verified=F structure_index=0 total_energy=-93.22076416015625 stress="-0.016583232209086418 0.0049819923005998135 0.003295389236882329 0.0049819923005998135 -0.015483316965401173 0.006464746780693531 0.003295389236882329 0.006464746780693531 -0.006827206816524267" pbc="T T T"
Lu       2.86323054       5.21853318      -2.92534331      -0.01795963      -0.00436580       0.02592033
Eu       4.20843690       2.14402723       2.89801557      -0.00808026      -0.00072898       0.01884910
Eu       5.24290444       4.56241429      -0.09022307       0.00545162       0.00372634      -0.00495683
Eu       6.13546066       3.25486302       5.85027651       0.00840994       0.00244030       0.02275477
Lu       1.25625337       3.84581859       3.51790685       0.01858091       0.00175191      -0.02194557
Eu       2.35713570       2.53669800      -0.54616278      -0.00249738      -0.03572909       0.00397050
Si       0.83218140       0.30969347       7.77668946      -0.01607152       0.00307392      -0.01587188
Eu       5.88538199       0.80918098       0.27121396       0.00452402       0.00304307      -0.01719326
Eu       4.45361149       6.13694896       3.37678792      -0.00302493      -0.00380938      -0.01172588
Eu       1.35624523       0.35246929       4.50205072      -0.00316553       0.03567680      -0.01043450
Si       2.97961863       2.83183297       5.60192969       0.01383273      -0.00507914       0.01063322
8
Lattice="4.1819031574230765 0.007684017293525021 -1.363819999434129 -2.261549191343378 5.351104550540285 0.1862641819152203 0.05483245690925956 -0.002563210755233652 7.259322322289823" Properties=species:S:1:pos:R:3:forces:R:3 sample_seed=85004 sample_index_within_seed=0 benchmark_method=TCL dft_verified=F structure_index=0 total_energy=-39.75373458862305 stress="0.003780841827392578 0.0016763173043727875 -0.0009806376183405519 0.0016763173043727875 -0.006297393701970577 0.0016466517699882388 -0.0009806376183405519 0.0016466517699882388 -0.00045090209459885955" pbc="T T T"
Eu      -0.90542430       5.26895283       0.71141625       0.00881588       0.03595199       0.02788013
Zn       1.80417176       4.37403994       1.92074052       0.00310697      -0.04404299       0.01147739
Eu       0.36992030       4.16648970       4.61651148       0.00481441      -0.00695630       0.01085350
Pd       2.10566212       1.90800534       2.83385457       0.00051003      -0.00442666       0.00203595
Zn       2.93006658       2.04483181       5.36023109      -0.00556341      -0.01336009      -0.01310604
Zn       0.40188188       1.08185766       4.69824864      -0.00911252      -0.01313064      -0.02845790
Zn      -0.44306270       2.23704296       2.11440421      -0.00225028       0.04530894      -0.00689584
Pd       1.17920237       2.81320963      -0.00090639      -0.00032105       0.00065574      -0.00378728
14
Lattice="6.070432152825192 0.004060717889108966 -2.5559484477625247 -0.39676129831889667 8.193947697837219 -0.9356697182337281 0.2249685472339126 -0.09605876346841145 9.025250127519554" Properties=species:S:1:pos:R:3:forces:R:3 sample_seed=85005 sample_index_within_seed=0 benchmark_method=TCL dft_verified=F structure_index=0 total_energy=-129.4794158935547 stress="0.005603134632110596 0.0003114608989562839 -0.0004306293558329344 0.0003114608989562839 0.003177229780703783 0.0007028127438388765 -0.0004306293558329344 0.0007028127438388765 0.004767312202602625" pbc="T T T"
Eu       2.06310901       6.20948600       4.72326764      -0.01674945       0.00588091       0.00001746
Eu       3.78149805       7.07734454       1.39380971      -0.03043066      -0.00842725       0.01607572
Eu       4.69648653       0.09196036      -1.18758797       0.02877088       0.01018082      -0.01464913
Eu       1.88178954       1.53549531       1.37240447       0.02840687       0.00111590      -0.01202056
Eu       0.56041888       0.86456574       7.06638624       0.01803455      -0.00363771      -0.00024112
Eu       0.52484730       5.63225524       1.39102142      -0.02662009       0.00378032       0.01203633
Eu       3.18247741       2.11383107       4.80512560       0.01238270       0.00233486      -0.01033007
Eu       2.79523139       4.18748456      -0.94078711      -0.03064205       0.00914105       0.01241729
Eu       5.67856919       2.98810191       1.14613770       0.02969037      -0.00911323      -0.00900474
Si       3.07462760       4.20290826       2.47690562      -0.02522902       0.02009142       0.00248859
Si       1.53162667       7.06480598      -1.19060400      -0.02247900      -0.02206130       0.01362445
Eu       5.51221479       4.96482405       4.43075462      -0.00809742      -0.00451516       0.01354473
Si       0.87210209       0.10679538       3.95259049       0.02063909       0.01642343      -0.01013204
Si       5.39982833       2.97050322      -2.26318311       0.02232322      -0.02119405      -0.01382688
9
Lattice="4.34684505989738 0.013113875115115248 -0.004878849092909758 -0.02587492402184655 7.195450232654711 -4.171901090867477 0.009549222183512899 0.015435992669103341 8.315312613999033" Properties=species:S:1:pos:R:3:forces:R:3 sample_seed=85006 sample_index_within_seed=0 benchmark_method=TCL dft_verified=F structure_index=0 total_energy=-101.7198486328125 stress="0.008531230501830578 0.0016621510731056333 0.0006715714116580784 0.0016621510731056333 0.012435168959200382 0.001844863872975111 0.0006715714116580784 0.001844863872975111 0.007597388233989477" pbc="T T T"
Gd       3.95114292       5.10196331       4.34816211      -0.00017511       0.01162440      -0.00790049
Gd       1.76481933       6.85156129      -1.68436775       0.00030361       0.00015516       0.01226617
Gd       1.77736640       3.99884340       1.68006024      -0.00035929      -0.01509431      -0.00580578
Gd       3.95693483       1.42624528       0.19475048       0.00002356      -0.01052979      -0.00465562
Gd       1.78638793       2.52826975       5.83755286      -0.00023810       0.00815435      -0.00290496
Pb       3.95775398       2.06421712       3.33050822       0.00080044       0.00684235       0.00374743
Gd       3.94229398       6.86723961       1.28564482       0.00011799      -0.00327426       0.01268025
Si       1.77169167       6.85956201       3.32903840      -0.00156608       0.00356983      -0.00357223
Pb       3.94580558       4.46051938      -0.82711138       0.00109304      -0.00144768      -0.00385477
4
Lattice="3.767755892528256 -0.004259219709557822 0.9453419425235706 1.773893409672381 3.323498942002767 0.9437932954230975 -0.020504960922375397 -0.00962681989226753 8.07302553157324" Properties=species:S:1:pos:R:3:forces:R:3 sample_seed=85007 sample_index_within_seed=0 benchmark_method=TCL dft_verified=F structure_index=0 total_energy=-35.12229919433594 stress="-3.436635233811103e-05 0.01832815259695053 0.04739964380860329 0.01832815259695053 -0.03906760364770889 0.01892079971730709 0.04739964380860329 0.01892079971730709 -0.05012093484401703" pbc="T T T"
Eu       3.27494159       1.84474599       4.40290634       0.01645484       0.00845199      -0.03470344
I        2.05277076       1.11148261       1.30916838      -0.00796581      -0.00480575       0.01362959
Eu       0.79938599       0.36150443       6.29738120      -0.00850412      -0.00113525       0.01932950
N        4.80869596       2.76432263       6.29341773       0.00001494      -0.00251095       0.00174437
12
Lattice="5.478765058520551 -0.0011090417389645532 0.0021643492895577435 0.0014792129774061347 7.425697219177841 0.011391691462129592 -0.007779697616298625 -0.01688606827706925 9.995569352229564" Properties=species:S:1:pos:R:3:forces:R:3 sample_seed=85008 sample_index_within_seed=0 benchmark_method=TCL dft_verified=F structure_index=0 total_energy=-105.70162963867188 stress="-0.003583701327443123 -2.6125328076886944e-05 -5.657454676111229e-05 -2.6125328076886944e-05 -0.005807988345623016 -5.974921441520564e-05 -5.657454676111229e-05 -5.974921441520564e-05 -0.0016402832698076963" pbc="T T T"
Eu       1.30838924       2.70289934       7.95567561       0.00077950      -0.00519412       0.00302131
Eu       1.31274119       4.01357141       1.61731736       0.00222090      -0.03329535      -0.01117828
Eu       4.05476905       1.16902272       0.08206506      -0.00076920       0.03767086       0.01565774
Sn       1.31104843       4.33885226       4.89516938      -0.00203584       0.02762728       0.00953690
Eu       1.30803280       6.41637688       8.74532789       0.00066621      -0.01060504      -0.00664862
Eu       4.05388851       6.18094700       2.96366205      -0.00072203       0.00819726       0.00765128
Eu       4.05060448       2.47031178       3.74046123       0.00155814       0.00029633      -0.00337591
Sn       4.05060862       0.83232858       6.80014330      -0.00206814      -0.03040316      -0.00384783
Sn       1.31483164       0.62787587       1.80376365      -0.00252714       0.03667151      -0.01341976
Eu       1.31221830       0.30162302       5.07751126      -0.00185473      -0.04223510       0.01539120
Sn       4.04574214       4.54003191       9.89559486       0.00075326      -0.03207035       0.00577134
Eu       4.04796281       4.86837048       6.62133387       0.00399906       0.04333986      -0.01855946
8
Lattice="4.002394839743462 -0.006304674767332175 0.010610508818387808 0.014911600930281068 5.780180416678449 0.01971117764377637 -0.011587250976680704 -0.02590969288606808 8.625800907734316" Properties=species:S:1:pos:R:3:forces:R:3 sample_seed=85009 sample_index_within_seed=0 benchmark_method=TCL dft_verified=F structure_index=0 total_energy=-57.959197998046875 stress="-0.004995030350983143 0.016063267365098 0.006579241715371609 0.016063267365098 0.012734577059745789 -0.0026594132650643587 0.006579241715371609 -0.0026594132650643587 0.030556945130228996" pbc="T T T"
Eu       3.54882284       3.01761214       8.42184794      -0.00069841       0.00678476       0.04264173
Cu       1.55785592       4.49123336       1.82862493      -0.00001205       0.00106098       0.00047821
Cu       1.55052048       1.60279170       1.81894847      -0.00034239      -0.00109867       0.00006651
Eu       1.54335069       0.13683369       7.40800127      -0.00087872      -0.00090639      -0.03103170
Eu       1.54571873       3.04072650       4.85664724       0.00091197       0.00197747       0.03047886
Cu       3.55068115       0.15200023       1.03167457      -0.00138491      -0.00247759      -0.01863216
Eu       3.54233823       0.15430373       3.85281170       0.00124210      -0.00807574      -0.04364112
Cu       3.55266806       3.04562302       2.61725891       0.00116240       0.00273516       0.01963963
3
Lattice="3.893409763057506 -0.008843080644896922 -2.2305366556914787 0.011739711228241651 4.189902265968262 -0.0013419487899477462 -0.012014896162589874 0.001150772045988149 4.481937808880509" Properties=species:S:1:pos:R:3:forces:R:3 sample_seed=85010 sample_index_within_seed=0 benchmark_method=TCL dft_verified=F structure_index=0 total_energy=-20.946372985839844 stress="-0.016031084582209587 0.011897185817360878 -0.027402373030781746 0.011897185817360878 -0.0413619726896286 -0.0010162889957427979 -0.027402373030781746 -0.0010162889957427979 -0.011679903604090214" pbc="T T T"
Eu       3.19711841       1.15250526       0.74625154      -0.00405444      -0.00498532       0.00717599
Au       1.90023557       3.24821015       2.98577965      -0.01070727       0.00343973       0.00611732
As       0.60642517       3.25170141       0.74335917       0.01476168       0.00154557      -0.01329332
9
Lattice="4.231003635756055 -0.003013606831729913 0.0030110889211945823 -2.1119488028626816 5.047397893014149 -0.30704255625975335 -0.003825021804699407 0.046622978760455853 7.6888889626266534" Properties=species:S:1:pos:R:3:forces:R:3 sample_seed=85011 sample_index_within_seed=0 benchmark_method=TCL dft_verified=F structure_index=0 total_energy=-56.73394775390625 stress="-0.029356513172388077 -0.0001402876223437488 0.00012290569429751486 -0.0001402876223437488 -0.021005408838391304 -0.0031171170994639397 0.00012290569429751486 -0.0031171170994639397 -0.033281728625297546" pbc="T T T"
Cu      -0.37592751       3.95234161       6.51425924       0.00221875       0.01109926       0.00449456
Pd       1.74108058       4.64109235       5.27051643       0.00065401       0.02422417      -0.01707517
Cu      -0.37100635       4.84978972       0.99426669       0.00081610      -0.04742548       0.00634977
Eu       1.73828053       1.77266698       6.67197997       0.00133693       0.01143589      -0.02213269
Eu       1.74251257       3.13563520       2.59093272       0.00016339      -0.00963162       0.04533584
Pd      -0.37436011       0.95178341       2.02546115       0.00078976       0.00769186      -0.03156211
Pd      -0.37454987       2.31632876       4.53366370      -0.00104639       0.00599609       0.02801123
Be       1.74556119       4.70037787      -0.15170999      -0.00362658       0.01352757      -0.01288876
Pd       1.73971796       0.30280306       3.91360881      -0.00130595      -0.01691784      -0.00053273
11
Lattice="5.438973097515307 0.011538327980043022 -3.1998742367066386 -1.8483018814028813 5.127878600902347 -3.1228804094122915 -0.024160793654989385 -0.09350195935534492 6.180741143843864" Properties=species:S:1:pos:R:3:forces:R:3 sample_seed=85012 sample_index_within_seed=0 benchmark_method=TCL dft_verified=F structure_index=0 total_energy=-72.1061782836914 stress="-0.028835685923695564 -0.00280586676672101 -0.00032834132434800267 -0.00280586676672101 -0.02452358789741993 -0.004576218780130148 -0.00032834132434800267 -0.004576218780130148 -0.029848359525203705" pbc="T T T"
Dy       3.79286285       0.86773639       0.53233577      -0.00252900       0.00147284       0.00479078
Fe       1.60357977       3.06809075       1.04326748       0.01396650       0.02748394      -0.01815526
Fe      -0.70945196       4.62313351       1.12282641      -0.00143898      -0.01757142       0.03370599
Fe      -0.74558991       2.22734945       1.05382651      -0.02296674       0.01586252      -0.01576881
Fe       1.07380018       0.86309633       2.13386870      -0.00446212      -0.00082812       0.00012491
Fe       0.44352558       3.78973040      -0.92677283       0.01906347      -0.02627367      -0.00116256
Ge       2.86772098       3.43313767      -1.02597916       0.00013175      -0.00045266      -0.00213413
Ge       0.79865743       1.34309969      -0.50032668      -0.01488051      -0.03312519       0.02594435
Ge       3.24372806       0.38775135       3.65163695      -0.02721703       0.03128776      -0.00006747
Ge       0.29670515       3.29256463       2.99796647       0.03502369      -0.02587171       0.01147726
Ge       3.53973508       3.56734597      -3.93406508       0.00530875       0.02801573      -0.03875516
9
Lattice="5.740927476806748 -0.03496684085989963 -0.7279895430921077 -3.715454572914384 5.476579414778178 -0.4219339534572941 -0.26760188278130714 -0.028061470820900155 7.396609739158135" Properties=species:S:1:pos:R:3:forces:R:3 sample_seed=85013 sample_index_within_seed=0 benchmark_method=TCL dft_verified=F structure_index=0 total_energy=-64.33331298828125 stress="0.019991623237729073 0.0027017053216695786 0.0004407233791425824 0.0027017053216695786 0.01615685597062111 0.0009545518551021814 0.0004407233791425824 0.0009545518551021814 0.01388741284608841" pbc="T T T"
Eu      -1.46665998       3.73102327       1.99722193      -0.00827344      -0.01111502       0.00487320
Ag       0.39259883       3.39870587       4.61586769       0.02416070       0.01127286      -0.00434008
Eu       5.15087144       0.24687827       2.90093954       0.00781918       0.01008605      -0.00412722
Eu       0.06725689       0.86917647       7.08531020      -0.03987856      -0.02305924      -0.01964845
Ge       1.83901460       1.99249494       2.44723412      -0.00192535       0.00063065      -0.00093605
Ge       1.17985843       3.80059995       0.00424390      -0.02036429      -0.01441507      -0.00739467
Ag       3.28807871       0.57800374       0.28373721      -0.02333860      -0.01037404       0.00335558
Ge       2.50343532       0.17603067       4.89627681       0.01997771       0.01457432       0.00611310
Eu       3.34512320       3.07998459       5.20827958       0.04182275       0.02239948       0.02210458
11
Lattice="2.8749006841574416 0.000795408461115456 -0.12012748194559265 0.00390853127750158 2.874744979372212 0.12176809303882291 -0.7720780454724766 0.7660613259305734 16.57857833269291" Properties=species:S:1:pos:R:3:forces:R:3 sample_seed=85014 sample_index_within_seed=0 benchmark_method=TCL dft_verified=F structure_index=0 total_energy=-92.47541809082031 stress="-0.014882273972034454 0.0001673455408308655 -0.001998254796490073 0.0001673455408308655 -0.014231150038540363 0.0021268269047141075 -0.001998254796490073 0.0021268269047141075 -0.014741485938429832" pbc="T T T"
Mn       0.02398271       3.23323565       1.01174320      -0.02704692       0.02992724      -0.00999890
Mn       1.63158094       1.62344682       5.43043411      -0.01313740       0.01444245       0.00198564
Mn       0.47788956       2.77845882      13.32707901       0.01017569      -0.01192168       0.00733275
Mn       0.34697088       2.91273965      10.55792971       0.03131887      -0.03474134       0.01339936
Mn      -0.88866200       4.14412513      14.82240538       0.00044751       0.00031187      -0.01177430
Mn       1.84706678       1.40961870      11.84953001       0.02476730      -0.02728958       0.01551703
Hf       0.24459175       3.01390989       7.39725939       0.01257244      -0.01410797       0.01256395
Mn       0.61869387       2.63303225      16.09041845      -0.01720701       0.01907601      -0.01727024
Zn       0.14373200       3.11225099       3.98272221      -0.02450134       0.02712388      -0.01082237
Mn       1.51744334       1.73730036       2.22825694      -0.03004990       0.03324616      -0.01414471
Mn       1.73395900       1.52456797       9.16825230       0.03266109      -0.03606695       0.01321188
8
Lattice="6.287622701424811 -0.012827790302689903 -0.0011560695055056456 0.017830162090389668 6.709057863784156 -3.881488934028415 -0.0010828101423696918 0.005797946828742723 7.746341721695809" Properties=species:S:1:pos:R:3:forces:R:3 sample_seed=85015 sample_index_within_seed=0 benchmark_method=TCL dft_verified=F structure_index=0 total_energy=-73.37480163574219 stress="-0.0013106027618050575 0.002505718730390072 0.00019100424833595753 0.002505718730390072 -0.005345258396118879 -0.0005392199382185936 0.00019100424833595753 -0.0005392199382185936 -0.0048435889184474945" pbc="T T T"
Eu       5.12830781       1.70485927      -0.22925836       0.00013847       0.00852073      -0.00161790
Eu       5.14019493       5.06084548       1.71060983      -0.00323997       0.00371759      -0.00271400
Eu       1.98961272       2.80917331       1.76715702      -0.00028905      -0.01539236       0.02022019
Eu       1.99670687       6.19534236       3.65080019      -0.00051158       0.00323859      -0.00760332
Eu       1.99493270       6.26108498      -0.22592717       0.00196939       0.02456417       0.00288212
Eu       5.13595613       5.07446044      -2.16628011       0.00011819      -0.00730237       0.00677020
Eu       1.98303986       2.81543263       5.53029992       0.00282586      -0.01656986      -0.01921017
Mg       5.12889511       1.71690936       3.64735415      -0.00101132      -0.00077649       0.00127289
8
Lattice="4.18971589741882 0.0003077129497565708 -9.412016743348416e-05 -0.0005297245119218962 4.448061825051444 -0.002263388937673354 0.00013608485637252895 0.0036490088666037467 5.164240026789774" Properties=species:S:1:pos:R:3:forces:R:3 sample_seed=85016 sample_index_within_seed=0 benchmark_method=TCL dft_verified=F structure_index=0 total_energy=-64.3853759765625 stress="-0.016044100746512413 -0.00040898763108998537 -1.1564561646082439e-05 -0.00040898763108998537 -0.005436066072434187 0.0006721834070049226 -1.1564561646082439e-05 0.0006721834070049226 -0.026655027642846107" pbc="T T T"
Mn       4.03133906       4.10928037       4.72689212      -0.00051148      -0.02212783       0.00666861
Mn       1.93654406       3.38046406       3.43396500      -0.00259163       0.03906560       0.00394103
Mn       1.93633317       1.12115808       4.72591930       0.00091499       0.01906683      -0.01294536
Ge       1.93667512       3.35249176       0.85223828      -0.00397192       0.01917041      -0.00048665
Mn       4.03107868       1.84691210       0.85385270       0.00221024      -0.04810663      -0.00368911
Ge       4.03091328       1.87299595       3.43524798       0.00392545      -0.01216670       0.00271257
Mn       4.03125492       4.10798667       2.14008741      -0.00018968      -0.02646440      -0.00354813
Mn       1.93634275       1.11752480       2.14727494       0.00021390       0.03156278       0.00734698
20
Lattice="6.324067125819179 0.03019387232709454 0.0035533483903650203 0.09764559807717714 6.273387922515385 -0.008787427304126096 -0.0021833901216166216 0.007362625752498191 5.764326020945432" Properties=species:S:1:pos:R:3:forces:R:3 sample_seed=85017 sample_index_within_seed=0 benchmark_method=TCL dft_verified=F structure_index=0 total_energy=-162.0890655517578 stress="0.010223506949841976 -0.001824194099754095 0.00033106000046245754 -0.001824194099754095 0.005300220102071762 0.0006918935687281191 0.00033106000046245754 0.0006918935687281191 -0.010387127287685871" pbc="T T T"
Mn       5.81302659       5.92495981       4.38973476       0.01543902      -0.00487879       0.00184577
Mn       1.35438970       5.27822196       2.95612674      -0.00186342      -0.00269054      -0.01460897
Mn       0.04651403       1.51794089       2.95770675       0.00160573      -0.01177452       0.00641510
Mn       0.04395205       1.50321961       0.08843448       0.01690583      -0.00986186      -0.01095667
Mn       2.60312177       2.73952149       0.09260759      -0.00051799      -0.02430385       0.00478113
Mn       3.26350897       4.64882993       4.39090628      -0.00496521      -0.00665372       0.00586366
Mn       0.71931739       3.42662664       4.39192004      -0.00999425       0.01932560      -0.00647897
Co       2.60289403       2.75504097       2.96021602       0.03113871      -0.00814784      -0.01321081
Mn       3.83212732       0.26160832       0.08668404      -0.00367266       0.00512664      -0.01427085
Co       4.47336846       2.15319573       4.40542369      -0.01576098       0.01745469       0.01550538
Mn       3.26472263       4.64336227       1.53554978       0.00689929       0.00862538       0.00410883
Co       1.93562787       0.87757115       1.52975655       0.00060521       0.00245765       0.00156800
Mn       5.81535881       5.90665710       1.53269387       0.00092434       0.01404026       0.00305382
Co       1.93247673       0.87208665       4.40615839      -0.00302779       0.00000004       0.00925549
Mn       3.82081814       0.28421908       2.97034192      -0.00869544       0.00382732       0.00533966
Co       4.48544536       2.15020663       1.52557711      -0.00687516       0.00165990      -0.00949927
Co       1.37041406       5.27290022       0.08528296      -0.02767461      -0.00054550       0.00339936
Co       5.14579938       4.02853641       2.96409808      -0.00154187      -0.00944909      -0.00939815
Co       5.16832084       4.03758992       0.08384831       0.02947425       0.00178069       0.00261768
Co       0.72166172       3.39832198       1.52553414      -0.01840287       0.00400772       0.01466978
6
Lattice="6.156790704832951 -0.010069582393245534 -0.012077941751311282 0.001602887807865124 5.694376817625075 -3.2759529495775106 0.01199368878903078 0.011942268064717989 6.600001733371465" Properties=species:S:1:pos:R:3:forces:R:3 sample_seed=85018 sample_index_within_seed=0 benchmark_method=TCL dft_verified=F structure_index=0 total_energy=-53.427268981933594 stress="0.022673945873975754 -0.00026195196551270783 7.491178985219449e-05 -0.00026195196551270783 0.010668703354895115 4.414996146806516e-05 7.491178985219449e-05 4.414996146806516e-05 0.009847213514149189" pbc="T T T"
Y        3.90071123       1.64289715      -0.93602823      -0.00356734       0.02175205      -0.01453089
Eu       3.90006486       5.34425947      -0.91391159       0.00293208      -0.00634881      -0.00239351
Y        0.81852713       3.43466650      -1.95617746       0.00177519      -0.03030075       0.01809350
Eu       0.81903630       1.59247712       1.26595772       0.00522987       0.00054396      -0.01969468
Eu       3.90705027       3.49110934       2.44734912      -0.00082648       0.00092304       0.01266143
Eu       0.83343395       5.43112267       1.34598274      -0.00554331       0.01343049       0.00586414
16
Lattice="4.8789133977280255 -0.07417087229706933 0.15516542451891938 0.12626339205223328 4.882289649437049 -0.8625801762568897 -0.10558159301104203 -0.16107080546435207 6.4521150668253915" Properties=species:S:1:pos:R:3:forces:R:3 sample_seed=85019 sample_index_within_seed=0 benchmark_method=TCL dft_verified=F structure_index=0 total_energy=-146.39755249023438 stress="0.0017380384961143136 0.0007724580354988575 0.000554228900000453 0.0007724580354988575 -0.0006756630027666688 0.00012014801905024797 0.000554228900000453 0.00012014801905024797 -0.0027729959692806005" pbc="T T T"
Mn       3.87956014       3.51632340       5.64347973      -0.01021922      -0.01931022       0.00682539
Mn       3.27232760       3.97538625       3.19933573      -0.01539871       0.00229144      -0.00270045
Mn       1.46485894       2.19205749       2.89026239      -0.00630312       0.01907004       0.00364909
C        2.15703084       0.81065176       4.14387144       0.00814644       0.00145812       0.00555954
Mn       0.71068932       1.73254760       5.19336930       0.02092305       0.02729021      -0.01269671
Mn       0.93617549       3.26043074       0.66934666      -0.00829881      -0.02363582       0.01414798
C        4.23873620       4.21213898       1.45057415      -0.00336042      -0.00939143      -0.00259996
Mn       3.26953821       2.52609626       1.25557880      -0.00799584      -0.01222329      -0.01449344
Mn       1.42143544       4.25631689       5.00147713      -0.01816883       0.03108269       0.00425139
Mn       0.77115413       4.65820004       2.63672992      -0.00712926       0.01087408       0.01144321
Mn       3.85173253       1.55227530       3.46680381       0.01284595       0.00921842      -0.00178781
C        1.78490256       1.48024497       0.44174070       0.00538769      -0.03898473      -0.03349022
Mn       3.26891070       0.90986456       5.80615475       0.02244997      -0.01840003      -0.01594660
Mn       2.46905534       0.17437900       1.74621660       0.01018029       0.00777188       0.00487849
C        0.08064686       3.21089870       3.87859167      -0.01728604       0.01738697       0.01559074
Mn       0.08283841       0.83136679       1.13768394       0.01422700      -0.00449811       0.01736929
4
Lattice="2.781284983980233 -0.009762040041577205 -0.0012867223380514667 -1.3859539925821294 2.4131306029505653 0.00017485160026925543 0.008527745452781824 0.008072392201396073 8.367814194855676" Properties=species:S:1:pos:R:3:forces:R:3 sample_seed=85020 sample_index_within_seed=0 benchmark_method=TCL dft_verified=F structure_index=0 total_energy=-23.25900650024414 stress="0.11485572159290314 -0.05876067653298378 0.01235442515462637 -0.05876067653298378 0.11406431347131729 0.013124542310833931 0.01235442515462637 0.013124542310833931 -0.04651051387190819" pbc="T T T"
Be       0.25035450       1.12623781       6.83628658       0.00353501      -0.00292663      -0.00518658
Pt       1.63767403       1.91414185       0.19884502      -0.00004100       0.00354082       0.03485090
Pt       0.25069137       1.11979176       2.64959445      -0.00142087       0.00073878       0.01264092
Pt       1.64474505       1.92323281       5.10335838      -0.00207314      -0.00135299      -0.04230514
12
Lattice="3.95987737881646 -0.0019345621190867803 0.001302381847077328 -1.9780404900524549 3.430336151728289 -0.0046508390573555295 -0.0042846786249926844 0.011734239320395549 9.941917745723542" Properties=species:S:1:pos:R:3:forces:R:3 sample_seed=85021 sample_index_within_seed=0 benchmark_method=TCL dft_verified=F structure_index=0 total_energy=-95.31466674804688 stress="0.044380396604537964 7.414061110466719e-05 -0.0001585176505614072 7.414061110466719e-05 0.044277336448431015 2.3089987735147588e-05 -0.0001585176505614072 2.3089987735147588e-05 0.04172278940677643" pbc="T T T"
Fe       1.31668089       1.42339708       8.66921711      -0.00111906       0.00011152      -0.00196945
Fe       1.31807305       1.42124290       6.16153597      -0.00270075      -0.00445818      -0.04114935
Fe       1.31844103       1.41753695       3.68854527      -0.00072093      -0.00021934       0.03811154
Fe       3.29628182       0.27847022       7.81647094       0.00061497       0.00121734      -0.01480310
Fe       3.29938377       0.26922527       0.38096780      -0.00123281       0.00095278      -0.01775079
Fe       3.29742530       0.27217967       2.85853628       0.00668350       0.00270119       0.01902154
Si      -0.66033996       2.55967187       2.16923543      -0.00263310      -0.00031158       0.02706283
Si       3.29762650       0.27562914       5.31394647      -0.00110716       0.00147485      -0.00039338
Fe       1.31922185       1.41445947       1.21951266       0.00103389      -0.00074456       0.00207138
Fe      -0.66085575       2.56289028       4.53768218      -0.00194111      -0.00110923       0.04441797
Fe      -0.66199163       2.56594730       6.97992792       0.00178592      -0.00055921      -0.04475823
Si      -0.66318371       2.56813106       9.39084680       0.00133678       0.00094443      -0.00986105
12
Lattice="4.33723359328602 0.00039366304307633437 -0.0015308518097116456 -0.000780206374921015 7.238782394250472 0.13811862897837374 0.0030126803602221275 0.062442788360349326 7.844003771869876" Properties=species:S:1:pos:R:3:forces:R:3 sample_seed=85022 sample_index_within_seed=0 benchmark_method=TCL dft_verified=F structure_index=0 total_energy=-79.23545837402344 stress="-0.019559167325496674 -0.00019044341752305627 0.00043252145405858755 -0.00019044341752305627 -0.016948815435171127 0.001317896181717515 0.00043252145405858755 0.001317896181717515 -0.015753330662846565" pbc="T T T"
Eu       3.55609380       6.75832916       1.68727192       0.00027266      -0.00646785      -0.01489945
Eu       3.55582221       3.20206798       0.55726005       0.00063332       0.00950045       0.01924027
Eu       1.38927222       2.94626834       5.43038566       0.00022917      -0.00748552      -0.01398670
Mg       1.38903210       6.52387457       4.53820142      -0.00051826      -0.00347097      -0.00717690
Ga       1.38997743       5.60562548       7.48003172      -0.00022148       0.00963768      -0.01375979
Pt       3.55730301       1.39169696       3.84662241       0.00023449      -0.00034833      -0.00647552
Pt       3.55809422       5.30648835       5.98956144       0.00005060       0.00282300       0.02868096
Pt       1.38805507       4.62235370       2.28322092      -0.00026538      -0.03149862       0.00432612
Ga       1.38811502       1.84965345       2.45515061       0.00022447      -0.02168895      -0.00793086
Pt       1.39058395       1.02157076       7.76360771      -0.00021807       0.01856554       0.00527778
Ga       3.55723126       4.21763948       3.62924456      -0.00017643      -0.01086083      -0.01398282
Ga       3.55877548       0.59975913       6.29335485      -0.00024506       0.04129445       0.02068702
10
Lattice="3.563999335000841 0.0004368999907120001 0.001638664225835965 -1.7827267407957308 6.228049962348915 0.0025843765736510765 -0.0035675718907494432 -0.0039146391806828005 7.675876457040084" Properties=species:S:1:pos:R:3:forces:R:3 sample_seed=85023 sample_index_within_seed=0 benchmark_method=TCL dft_verified=F structure_index=0 total_energy=-66.5918960571289 stress="0.014456689357757568 -3.311014734208584e-05 -6.93462643539533e-05 -3.311014734208584e-05 -0.023953979834914207 0.00029475984047167003 -6.93462643539533e-05 0.00029475984047167003 0.0005293770227581263" pbc="T T T"
Ge       1.34676920       3.72282616       5.21717028       0.00035106       0.02636188      -0.00392178
Sm       1.34673194       0.20581283       5.21548334       0.00078966      -0.00492913      -0.00202716
Mn       1.34797614       4.78496318       2.85979945      -0.00022255       0.03679669      -0.00444394
O        3.12886781       0.55947014       3.30116749       0.00143481       0.00049065       0.00136227
Mn      -0.43552931       2.56141294       6.69638903      -0.00004356      -0.03590485      -0.00690104
Mn       1.34615247       4.78274409       7.57483377      -0.00074314       0.03627113       0.00588408
Sm       1.34965401       0.91312562       1.37723084      -0.00076979       0.00606748       0.00224085
O        3.13058570       0.55721164       7.12859469      -0.00142720       0.00057491      -0.00121985
Mn      -0.43442900       2.56291467       3.73447122      -0.00005101      -0.03629184       0.00509793
Ge      -0.43310290       3.62330054       1.37756129       0.00068178      -0.02943716       0.00392870
4
Lattice="3.590794241527192 -0.0011557125993138645 -0.0005937207366332471 0.0009178566691067895 3.591258800311806 -0.0031979497321050366 0.0035643124222700415 0.00871710780711607 8.435957976425478" Properties=species:S:1:pos:R:3:forces:R:3 sample_seed=85024 sample_index_within_seed=0 benchmark_method=TCL dft_verified=F structure_index=0 total_energy=-30.651247024536133 stress="0.025650735944509506 -0.0006318530067801476 0.0015200948109850287 -0.0006318530067801476 0.027450108900666237 0.0025066183879971504 0.0015200948109850287 0.0025066183879971504 -0.06566938757896423" pbc="T T T"
Eu       0.31989453       0.03420127       4.48049828       0.00100650      -0.00258894      -0.01346396
Eu       0.32158834       0.02812421       1.09511037      -0.00113321      -0.00068053       0.03664091
Li       2.11818652       1.82710549       7.03220862       0.00014953       0.00172178      -0.02104938
Rh       2.11660200       1.82524910       2.78506067      -0.00002283       0.00154771      -0.00212757
10
Lattice="3.4613189135257194 0.003307395520935463 -0.0010744761338190168 -0.003316743940568422 3.4613003934366144 0.0003777561278869378 0.004749971030703495 -0.0015891367976071631 17.28529101947686" Properties=species:S:1:pos:R:3:forces:R:3 sample_seed=85025 sample_index_within_seed=0 benchmark_method=TCL dft_verified=F structure_index=0 total_energy=-105.7545166015625 stress="0.022975588217377663 -9.842216240940616e-05 -4.257255932316184e-05 -9.842216240940616e-05 0.02284832112491131 8.440297278866637e-06 -4.257255932316184e-05 8.440297278866637e-06 0.019070524722337723" pbc="T T T"
Gd       1.94179744       1.01105901       6.96356695      -0.00404005       0.00027428       0.02227199
Gd       1.93589446       1.01402703       0.08152237       0.00266044      -0.00429473      -0.02657118
Dy       1.93926933       1.01206741       3.52625728      -0.00215201      -0.00001180      -0.00404430
Gd       1.94199529       1.00751642      13.89187293      -0.00133810       0.00354112       0.01721124
Gd       1.93875087       1.00835528      10.42569669       0.00506295       0.00206290      -0.00224546
Rh       0.20773869       2.74042460       5.21747197       0.00045929       0.00056692      -0.04769424
Rh       0.20456884       2.74166004       1.84162127       0.00269356       0.00047167       0.01945042
Rh       0.20942052       2.73937703      15.63606413      -0.00112506      -0.00137462       0.03295400
Rh       0.20805582       2.73986723       8.68641184      -0.00015917      -0.00336738      -0.02308008
Rh       0.20885145       2.73649175      12.15599086      -0.00206188       0.00213166       0.01174765
11
Lattice="4.1454863027692515 0.0030803617244282637 -1.088883593378514 -0.953089528363529 6.946450629070878 -3.6063310029019777 0.05628334970166162 0.022913315578993024 8.648753170962806" Properties=species:S:1:pos:R:3:forces:R:3 sample_seed=85026 sample_index_within_seed=0 benchmark_method=TCL dft_verified=F structure_index=0 total_energy=-55.00144958496094 stress="-0.012363020330667496 0.0011629016371443868 0.006182580720633268 0.0011629016371443868 -0.0012546833604574203 0.008905175141990185 0.006182580720633268 0.008905175141990185 0.0028449848759919405" pbc="T T T"
Eu       1.83573779       6.62251758      -1.01154820       0.00276459       0.00764797       0.01190457
Mg       1.02001112       6.52762253       4.31844611      -0.00139013      -0.01452128      -0.00705820
Mg       1.38755174       3.84541285       5.70891787      -0.00358517       0.01075041      -0.01581137
Eu       3.56891197       1.32614407       5.57225997      -0.00281432      -0.00817070      -0.01549750
Mg       0.23884974       1.41979954       1.33037142       0.00196898       0.01079313       0.00621599
Eu       2.70153965       3.97286109       2.27902129       0.00127071       0.00266845       0.00195184
Cu       1.95972368       2.40599995      -0.54944688       0.00553177       0.00657613       0.01476038
Cu       0.94492370       1.67469411       4.01721027      -0.00520760       0.03484549      -0.01848044
Cu       0.31434925       6.26867697       1.63181634       0.00501773      -0.03167575       0.01941707
Mg      -0.12812481       4.10124944      -0.06097282       0.00195287      -0.01201681       0.01335822
Cu      -0.75720747       5.51780481      -2.45342291      -0.00550945      -0.00689694      -0.01076062
16
Lattice="4.227544641909265 -0.007269778774402333 0.004037625768835791 -2.1039373058658035 5.489346167670365 -1.928885321716641 -0.00014627505231294753 -0.10564383139713399 7.816680299322129" Properties=species:S:1:pos:R:3:forces:R:3 sample_seed=85027 sample_index_within_seed=0 benchmark_method=TCL dft_verified=F structure_index=0 total_energy=-141.85302734375 stress="-0.0181054025888443 -4.597907536663115e-05 -0.00018568287487141788 -4.597907536663115e-05 -0.016663959249854088 -0.0004540774680208415 -0.00018568287487141788 -0.0004540774680208415 -0.016756728291511536" pbc="T T T"
Mn       1.03334461       1.89041935       1.34046158       0.00594536       0.00019228       0.00079590
Mn       3.14146166       1.63983877       6.82619614      -0.00216941      -0.01293969      -0.01716931
Mn       1.02903039       0.37691114       3.13577497       0.00207086      -0.01391310      -0.01269532
Mn       1.03473760       4.53006280       5.44647576       0.00042571       0.00827375      -0.00320318
Mn      -0.02425796       5.20044851       3.34660712       0.00189639      -0.00130703      -0.00314145
Fe       1.03384129       3.00121594       3.34444949       0.00039447      -0.00795069      -0.00073891
Mn       1.03053296       1.87734190       5.30189084       0.00073457      -0.01043457       0.00223637
Mn       1.02589994       0.38961925       7.40528425      -0.00206027      -0.00480300       0.00429982
Mn       1.02598476       3.13822379      -0.61037649      -0.00485335       0.01775423      -0.03287885
Fe       3.14254633       0.60929122       1.40936302       0.00135874       0.03472015      -0.01688844
Mn       2.09798486       5.19685241       3.34849615      -0.00116815      -0.00178754      -0.00169937
Mn      -1.07811582       3.23149817       1.86334095      -0.00095104       0.00505215       0.05016144
Fe       1.03770444       4.48131808       1.26934884       0.00242041      -0.00457731      -0.00771418
Mn      -1.08063978       3.44113342       4.76588419       0.00174342       0.00046283      -0.00221419
Mn       3.14494903       1.43683358       3.82496602      -0.00361656      -0.00581844       0.00833501
Mn      -1.08160712       4.40654434      -0.58582869      -0.00217133      -0.00292420       0.03251447
12
Lattice="4.927173161770325 0.03234991570755528 -0.7481963977851116 -1.0340746249312922 4.69141285131786 -0.8064385952172949 0.041794912401428165 0.017172414880895794 4.885911958790371" Properties=species:S:1:pos:R:3:forces:R:3 sample_seed=85028 sample_index_within_seed=0 benchmark_method=TCL dft_verified=F structure_index=0 total_energy=-106.3795166015625 stress="0.056247226893901825 -0.009651326574385166 0.0003186615649610758 -0.009651326574385166 0.048456184566020966 -0.006524043157696724 0.0003186615649610758 -0.006524043157696724 0.05145140737295151" pbc="T T T"
Mn      -0.55189069       2.26038976      -0.31003378       0.02244049       0.00577001       0.00150067
Fe       1.04174961       2.98763168       2.42703400      -0.01360193      -0.01430415       0.01192969
Fe       3.37668367       1.51545084       1.58155963      -0.00041384      -0.03258955       0.00540093
C        2.73316045       2.63826740       3.13597954      -0.01465759       0.00065435       0.00798352
Mn       3.44742073       4.39500237       2.46852441      -0.03705007       0.02007791       0.00757876
C        3.84469513       0.67980302      -0.07840987      -0.03089945      -0.02111772       0.01715910
Mn       0.78565618       0.32080800       1.48696237      -0.00397236       0.01728123      -0.01038595
Mn       2.01613894       3.76747940      -0.18365872       0.02320278       0.02414486      -0.01193410
C        1.57415797       4.59052171       1.48483234       0.01352718       0.00516039      -0.02574378
Fe       2.00515759       0.91456229       3.82098201       0.02262320       0.00469112      -0.01919574
C        0.20589453       1.33856798       3.07247492       0.00047094       0.00386454       0.03539761
C        0.32603617       3.95792552       3.96447890       0.01833057      -0.01363280      -0.01969042
8
Lattice="4.501535424452224 -0.02086615373014159 0.016307844571988996 0.026209742749881637 5.901239664472301 0.024787668196293706 -0.027113787543929038 -0.03535921241445312 7.703989184876672" Properties=species:S:1:pos:R:3:forces:R:3 sample_seed=85029 sample_index_within_seed=0 benchmark_method=TCL dft_verified=F structure_index=0 total_energy=-67.53807067871094 stress="0.01190441008657217 -0.004523588344454765 0.0027796681970357895 -0.004523588344454765 0.0012810105690732598 -0.008457032032310963 0.0027796681970357895 -0.008457032032310963 0.010926193557679653" pbc="T T T"
Pd       0.52350539       0.28204013       2.80724944       0.00040994       0.00674801      -0.02182942
Eu       0.53366091       4.57658926       5.58486267      -0.00184690      -0.01422797      -0.00111166
Eu       0.54055422       3.20619435       1.72504339      -0.00037896       0.01448375       0.00450514
Eu       2.78202112       0.25033929       0.65548577       0.00011114       0.01547948      -0.00272592
Pd       0.51643045       1.58798498       6.66710414      -0.00182879      -0.00816409      -0.02513516
Eu       2.77421650       1.61909047       4.51175261       0.00135409      -0.01645518      -0.00096255
Pd       2.77180783       3.20609246       7.27205742       0.00165136       0.00250821       0.03102831
Pd       2.79106358       4.53875323       3.43395191       0.00052813      -0.00037213       0.01623123
4
Lattice="4.525377488640829 0.005604612433632529 -1.8645729141147582 -0.7747438945113544 4.45681578699673 -1.8672200923374234 -0.14293634247184328 -0.16592274797814124 6.077762541537692" Properties=species:S:1:pos:R:3:forces:R:3 sample_seed=85030 sample_index_within_seed=0 benchmark_method=TCL dft_verified=F structure_index=0 total_energy=-37.749935150146484 stress="0.05535993352532387 -0.001936025801114738 -0.004322022199630737 -0.001936025801114738 0.05270970240235329 -0.004125637002289295 -0.004322022199630737 -0.004125637002289295 0.05039224028587341" pbc="T T T"
Gd       3.84216762       2.04667565      -0.54460134       0.00173568      -0.00078034       0.00387344
Gd       1.19376986       4.27286888      -0.54372836      -0.00190114      -0.00156301      -0.00027725
Dy       0.56956092       0.84262716       4.36075637       0.00271342       0.00396834       0.00073389
Pb       2.44749533       3.07668668       2.49758380      -0.00254797      -0.00162498      -0.00433008
10
Lattice="4.2963222811791795 0.0069353465648246595 0.0035876444634136574 -0.00637779154643371 4.296433056446827 -0.0005574300329921706 -0.008846290700133682 0.001887172594699706 10.201193542952803" Properties=species:S:1:pos:R:3:forces:R:3 sample_seed=85031 sample_index_within_seed=0 benchmark_method=TCL dft_verified=F structure_index=0 total_energy=-57.306095123291016 stress="0.012932238169014454 0.0014054704224690795 -0.0001593168271938339 0.0014054704224690795 0.012741009704768658 0.00010218362876912579 -0.0001593168271938339 0.00010218362876912579 0.015650443732738495" pbc="T T T"
Al       1.61293118       3.71343880       0.98099057       0.00166772      -0.00000136       0.00987948
Al       3.76320749       1.56930814       3.53437722      -0.00116432       0.00054054      -0.01570393
Al       1.61084053       1.56678413       7.35767675       0.00185834      -0.00123698      -0.00235571
Eu       3.75725801       1.56996982       9.90907684      -0.00035544       0.00083627      -0.02229765
Cu       1.61583243       1.56558668       2.25646871       0.00067618      -0.00047677       0.00059156
Cu       3.76045374       1.57016878       6.01746665      -0.00054665      -0.00010619       0.05117377
Eu       1.61020615       3.71424428       4.80625769       0.00074855       0.00025912       0.02520368
Pd       3.76026261       3.71749435       2.25842254      -0.00081233      -0.00062759      -0.00054315
Al       3.75731681       3.71867235       7.35949179      -0.00118402      -0.00050387      -0.00314252
Cu       1.60821485       3.71451003       8.69658793      -0.00088803       0.00131682      -0.04280554
