8
Lattice="3.3062973022460938 0.0 -0.555516242980957 -0.025710844786033728 4.105094503592017 -0.05428971350193024 0.0 0.0 8.699127197265625" Properties=species:S:1:pos:R:3 pbc="T T T"
Ti       1.22572672       2.37526245      -0.11448622
O        1.96446278       2.40726572       3.62890489
Cu       0.16693411       2.40378731       3.14702890
Cu       2.31429221       2.38479822       5.37076371
Cu       2.90557951       0.31962182      -0.25042229
O        1.24700892       0.32399947      -0.03860670
O        3.09421887       2.39846204       0.76540130
O        2.66514042       2.36844730       7.13078664
