8
Lattice="3.0911638627789717 0.008515278834356557 -0.5339926017869945 -0.010146966945146267 3.8358142040301875 -0.03243610800389206 0.17279822925459362 0.05653612513515559 9.390529890842613" Properties=species:S:1:pos:R:3:forces:R:3 structure_index=0 total_energy=-50.07272720336914 stress="0.02325332537293434 -0.00038104309351183474 -0.0012245719553902745 -0.0003812381182797253 0.009696192108094692 0.0026316228322684765 -0.001223492668941617 0.0026312381960451603 -0.010116619989275932" pbc="T T T"
Ti       1.00219857       2.19140929      -0.47267248       0.02309889       0.04310654      -0.01414251
O        1.92770061       2.27260773       3.98120159       0.01382246       0.00082564       0.01659825
Cu       0.21434230       2.25977997       3.27558990       0.00093206      -0.00377787      -0.02589849
Cu       2.25545913       2.27841938       5.73660308      -0.00231453      -0.00207615      -0.00438818
Cu       2.93278147       0.33198642       1.03669929       0.03022031       0.00006653       0.03094188
O        1.17420132       0.31683918      -0.22265770      -0.01822015      -0.00759681       0.04143414
O        2.96402352       2.25041478       0.73681457      -0.03818633      -0.00887210      -0.02698112
O        2.59574847       2.28386253       7.53563252      -0.00935268      -0.02167571      -0.01756376
