19
Lattice="3.7311127185821533 0.0 -0.008132594637572765 -0.03357605377075604 10.024691619936942 0.07182526588439941 0.0 0.0 10.015890121459961" Properties=species:S:1:pos:R:3 pbc="T T T"
Gd       2.60661716       7.69295578       0.75728340
Li       2.62968140       0.67334488       1.25921870
Gd       2.62383630       2.68628371       9.23920556
Li       2.62420761       3.30560981       6.23105699
Li       2.61374055       5.68174782       8.67450539
Gd       2.62829713       1.19400893       4.23745066
Au       0.76054083       2.38463502       1.84185685
Au       0.76745532       0.10162907       9.60469613
Au       0.74999287       5.09716531       0.40891114
In       2.60202420       9.51185491       7.54328739
Au       0.76084163       1.58586987       6.78892469
Au       0.73451844       9.45241739       2.52779934
Mg       2.61724963       4.44548091       2.44390926
Gd       2.61227573       6.37452952       5.58672169
Au       0.74373561       6.54998476       3.09156453
Au       0.73868970       8.85098665       5.36161726
Au       0.74113290       7.37414577       8.13911779
Au       0.75545965       3.86387613       4.51128457
Au       0.75239676       4.50165031       7.44523972
