12
Lattice="4.730674743652344 0.0 2.901169538497925 1.7827934708628135 4.70039656856643 2.9020073413848877 0.0 0.0 5.809697151184082" Properties=species:S:1:pos:R:3 pbc="T T T"
Ta       3.77357840       3.66814876       6.68199400
Fe       4.16550019       3.43837161       9.58770592
B        3.99927942       0.00174655       6.68184371
Fe       1.73353973       3.50884499       8.20354008
B        4.89204045       2.35082557       5.22969939
Fe       1.73518149       3.51372099       5.17012154
Fe       3.31583966       1.20169595       5.16789625
B        4.89710189       2.34938650       8.13154123
Ta       1.28575757       1.03217924       6.68795483
Fe       3.32199861       1.19681505       8.19692668
Fe       0.88582757       1.26310262       3.77885995
B        3.99749145       0.00280446       3.77500316
