11
Lattice="3.147095106451358 0.0018573311156637482 -0.6596483645018484 -0.2449196663310752 5.036257569506777 -1.1820734874285568 0.03705908387561081 0.07176325484363387 7.882807438336272" Properties=species:S:1:pos:R:3:forces:R:3 structure_index=0 total_energy=-67.23734283447266 stress="-0.026590481400489807 -0.0005872487090528011 -0.007105316035449505 -0.0005867415457032621 -0.03063608705997467 -0.003804020583629608 -0.007106842007488012 -0.00380438263528049 -0.05678125098347664" pbc="T T T"
Fe       2.80724481       1.93886714       1.88294019      -0.00120369      -0.00765919       0.01303312
Fe       0.61515915       1.17174773       7.08095519      -0.00103301       0.02169576       0.00462997
Fe       0.83834444       4.06050431       0.33791824      -0.00270073      -0.00999148      -0.01368038
H        1.75965589       0.84626101       4.68810529       0.00414748      -0.04089770       0.01132643
H        2.81803405       4.44863880       1.93755183      -0.00035544      -0.00112191      -0.00563219
O       -0.07993106       3.46272659       3.73380877       0.00102144       0.04319010      -0.01508173
O        1.91653882       1.44411046       5.44387753       0.00138608      -0.00129533       0.01016846
Fe       1.76323187       3.60919586       4.70905829      -0.00139336      -0.01435412      -0.00234536
O        0.45135363       4.17975672       6.31616531      -0.01105012       0.01471629      -0.00511065
O        0.95756048       2.03556375       0.89494954       0.00855050       0.00531253       0.01920122
O        2.62166576       4.93840062       1.03480582       0.00263082      -0.00959496      -0.01650867
