10
Lattice="3.4102351665496826 0.0 -0.002357626799494028 -1.7051664009298118 5.834566586741229 -0.3485877811908722 0.0 0.0 8.208044052124023" Properties=species:S:1:pos:R:3 pbc="T T T"
Sc       0.42517515       2.70933759       7.90746544
Zn       2.13111685       2.79694608       5.38272400
Sc       2.13199234       3.62093333       2.36918720
Zn      -1.27915471       4.89395976       7.16628081
C        0.42584228       5.25928510       2.87722797
Sc       2.12753124       0.52439587       1.35224782
Zn       0.42401175       4.48332208       4.73863447
Zn       2.13044171       0.70600690       6.61975683
C        0.42614356       2.01637080       1.80264351
Sc       0.42590170       0.86892721       3.87621818
