20
Lattice="4.489305735182781 0.008117232408489895 -0.08390872245020498 0.1690911958535921 6.810942315371243 -1.6581552876005237 -0.056218852593139114 -0.09315013223121421 6.92976184967355" Properties=species:S:1:pos:R:3:forces:R:3 structure_index=0 total_energy=-151.2909393310547 stress="0.0005803971434943378 -0.00010879319597734138 0.00035150983603671193 -0.00010860239854082465 0.0010527572594583035 0.0016674924409016967 0.00035250483779236674 0.0016661979025229812 0.0001268653286388144" pbc="T T T"
Co       3.08412015       5.81171689       1.09105118      -0.00127491      -0.00606008       0.00255391
Co       1.48311456       0.81715390       4.09436055      -0.00598091       0.01198125       0.00544366
Co       3.06097367       2.87825056       5.00010434       0.00228840       0.01998281      -0.00501700
Ti       3.56928345       0.08460582       5.03946058      -0.01246551       0.01917835       0.00114013
Co       3.11480002       4.41921126       3.14624432      -0.00048293       0.01197924      -0.00280458
Co       3.88554413       3.42677113       0.83484776      -0.00668849      -0.01013201      -0.00754423
Co       0.80653306       3.59029758       4.18230990       0.00481191       0.00697982      -0.01314391
Co       0.63294960       1.63029533       6.49005116      -0.01076424      -0.00951943       0.00533283
Co       3.05097862       0.73240141       0.71952720       0.00653275      -0.01080900       0.01332587
B        2.57793940       2.32102176      -0.21453298       0.00981653      -0.03961961      -0.02903835
Ti       1.59671463       5.87021706       4.77531499      -0.00813584       0.00469380       0.00521225
C        0.14001813       1.92661738       4.70546285      -0.00041544       0.01642019       0.00515848
Co       0.74351272      -0.01379793       1.75494336       0.00501019      -0.00674024       0.01631278
C        0.17555388       5.09101440       0.47439147       0.00077299      -0.01026126       0.00204971
Ti       1.60040855       2.71516622       1.95746970       0.00552004      -0.00253932      -0.01502491
Co       3.83675179       1.85282464       2.89071226       0.00403370       0.01246873      -0.00069496
C        2.36957600       0.72814741       2.44708504       0.00842753       0.00060651       0.01380119
Co       0.86829994       5.19770657       2.25457014      -0.00280997       0.00481734       0.00105828
Co       3.86300872       5.07992189       5.55149207       0.00337920       0.00474498       0.00367355
Co       1.64701782       4.17100202      -0.25878520      -0.00157502      -0.01817241      -0.00179456
