8
Lattice="4.176204204559326 0.0 0.002163938246667385 -2.091752184273617 3.6134183351479865 -0.004203940276056528 0.0 0.0 12.79352855682373" Properties=species:S:1:pos:R:3 pbc="T T T"
Eu       1.51672019       1.71347429       7.66702428
Pt       1.51550269       1.71651401       4.75927823
Pt      -0.57451383       2.92185209       9.77907825
Gd       3.60262584       0.51340964       3.01544866
Si       3.60370995       0.51304361       9.76730726
Au      -0.57357796       2.92192338       1.11985000
Si      -0.57419093       2.92131150       5.16753104
Eu       1.51498135       1.71784934      11.89167094
