10
Lattice="4.605262279510498 0.0 -0.03347106650471687 -1.816386623501217 4.234595131636263 -0.02634243853390217 0.0 0.0 5.050317287445068" Properties=species:S:1:pos:R:3 pbc="T T T"
Ga       1.35056546       2.03246503       0.32118807
Co       0.49261775       4.10118174       4.18982026
Ga       2.84730546       4.07294103       3.00931636
Fe       3.71648031       2.00114074       1.66938215
Co       1.32723401       2.03740806       2.88231034
Co      -1.73088893       4.06562543       0.48417633
Co       3.70365129       2.00521702       4.19219426
H        2.72055298       1.12022820       2.99013170
H        3.29700977       0.74632201       0.36140100
Fe       0.48692260       4.10057875       1.66049899
