11
Lattice="3.382153272628784 0.0 -0.69373619556427 -0.3463392130941887 5.801284454069493 -1.641683578491211 0.0 0.0 8.73996639251709" Properties=species:S:1:pos:R:3 pbc="T T T"
As       1.09392130       0.17325616       5.81750553
Mn       1.40022081       5.54776637      -1.24085419
Mn       2.73602222       1.90835233       5.31148709
As       0.04340140       1.70504478       0.70044515
Mn       2.77168133       5.69266832       5.49194304
Mn       3.08016831       3.74873158      -1.70120728
Mn       1.04666723       3.82069639       5.71013259
Mn       1.39872328       1.92915830       7.42449787
Sb       2.25491064       0.39037647       2.88257776
Sb       2.32638291       3.42427359       3.29648260
Mn       1.77763950       3.63530526       0.58864262
