8
Lattice="4.033473491668701 0.0 0.00027533783577382565 0.0016908241396211396 4.662310770522509 -0.8260810375213623 0.0 0.0 4.941286563873291" Properties=species:S:1:pos:R:3 pbc="T T T"
Fe       0.73488785       3.15395246      -0.22725452
Co       0.73366238       0.81313382       1.42182682
Fe       2.75233518       4.28950467       3.89446252
Fe       2.75157189       4.30480809       1.42161014
Fe       2.75112466       1.96651246       0.60456428
Fe       0.73385863       0.81613023       3.88625917
Co       2.75087779       1.96328207       3.07338581
Co       0.73507481       3.16168685       2.23909821
