15
Lattice="4.74195671081543 0.0 1.3114516735076904 0.9458834515857144 5.621760945970701 3.278501033782959 0.0 0.0 6.219607353210449" Properties=species:S:1:pos:R:3 pbc="T T T"
Fe       1.18615465       2.31970704       2.11169694
Fe       3.40990952       0.24825545       2.77870688
Fe       2.48967682       0.60035256       6.72852208
Fe       2.59444672       5.14753731       8.00584631
Fe       0.27106273       1.43680990       6.08071316
Fe       1.54299254       4.41345101       3.96124803
Fe       4.34572071       1.12957251       5.02557737
B        5.29070235       5.24447662       9.84563758
Fe       2.11706013       1.92905819       4.36011597
Fe       4.03643439       3.79780707       4.17047414
P        1.16561777       0.02091783       2.41453053
Rh       5.15932259       4.13025990       7.87637198
Rh       2.99968612       3.10059301       6.44874872
P        3.45731046       2.54399867       2.49786250
B        5.03612908       2.95837255       5.84350858
