20
Lattice="5.293330192565918 0.0 -0.48299339413642883 0.7744448152399168 5.365258882426888 -0.10962332040071487 0.0 0.0 8.813763618469238" Properties=species:S:1:pos:R:3 pbc="T T T"
Cu       4.44384106       5.14260557       7.22523716
Ca       5.34141747       1.79974138       3.04423715
Mn       0.89738225       1.09777141       6.63162271
Mn       2.69345513       3.50977949       2.24473217
O        1.85547715       1.79809480       4.92923918
O        2.12484031       5.29106865       2.77453530
Mn       4.44264295       2.44487375      -0.07675790
O        5.27430427       3.00780562       6.97612226
Mn       2.70396093       0.12577692       4.35248491
Mn       1.86638474       0.84622809       0.91336840
O        2.65823121       2.00236694       7.75727161
Mn       1.73440517       3.75241001       8.05709909
O        0.18831786       0.23262519       8.43434009
Mn       3.53980994       2.75433608       5.66255026
O        4.37868405       0.96036787       5.03232095
O        0.96467153       2.64947903       1.39495400
O        4.03966945       3.69853215       3.71946108
O        3.31467428       4.33219624       0.30538148
O        3.54912418       1.81726750       1.62128283
O        2.83015465       4.63145721       6.25001576
