20
Lattice="5.336928844451904 0.0 1.5576820373535156 2.3836748618411714 4.792694726503843 1.5413486957550049 0.0 0.0 9.605462074279785" Properties=species:S:1:pos:R:3 pbc="T T T"
Eu       6.12438262       2.73892428       6.87461135
Eu       4.09436827       1.47613608       4.04759716
Fe       1.69848011       3.29689726       2.28057581
W        5.11722096       2.10640957      10.24919653
Eu       2.74844308       3.95041253       8.42736862
O        5.08251047       0.65893740       6.39249486
Eu       2.15431650       0.27083124       0.88944927
Fe       3.63271350       4.50680944       5.43798279
O        1.24781623       1.20309937       7.80326673
Mn       3.19227453       0.91886833       7.06243973
O        2.45526323       4.27784355       3.81443357
O        3.61947817       3.01426232      11.14344888
O        5.16978029       3.56507291       4.48026278
O        3.00423001       2.74015265       6.12678475
O        3.97683045       1.88173789       8.70892830
O        6.25411041       2.34903279      11.81410697
O        1.87825150       1.52136178       3.18341657
O        4.80812347       4.73087354       7.03872021
O        4.53264463       0.34689832      10.90211840
O        5.71177968       3.82759328       9.60232351
