10
Lattice="4.68597246796223 -0.0036997616323140446 2.4751975542476274 1.6921941039618535 4.369437758989018 2.4769248454191124 -0.032991245709062374 -0.025468862008156797 5.7363715158854625" Properties=species:S:1:pos:R:3:forces:R:3 structure_index=0 total_energy=-83.88577270507812 stress="0.05287572368979454 0.0013371757231652737 -0.0009901543380692601 0.0013384096091613173 0.054169610142707825 -0.0020282960031181574 -0.000987395877018571 -0.0020336154848337173 0.05615394562482834" pbc="T T T"
Mn       2.14727520       1.49415626       4.63025974      -0.00091155      -0.00050023      -0.00034139
Gd       3.48305427       2.40698536       7.77756598       0.00302444       0.00365604      -0.01342461
O        4.09181691       1.83068876       4.33820574       0.00477678       0.00637290      -0.02316612
Mn       5.22672669       3.60363736       4.47466362      -0.00915108      -0.01155987       0.03795208
O        2.15406983       0.57586295       2.85946795       0.00528026       0.01349215      -0.01944187
Fe       0.16556790       0.13748062       2.70560842      -0.00849426      -0.00456302       0.03065066
O        4.98411946       0.86487057       7.12430778      -0.03109100       0.03274468      -0.00193994
O        1.93439706       2.67731618       6.16926163       0.03142145       0.00146404       0.01754057
O        2.83553719      -0.00559313       5.67280997      -0.00821504      -0.04293790      -0.01057065
O        1.81723976       3.18668892       3.62689495       0.01336012       0.00183061      -0.01725870
