4
Lattice="4.399076113595786 -0.018268629107183156 -0.006369769290943242 0.018099812574181168 4.413101600984825 0.006432832091512318 0.006431012868413676 -0.006355899847253018 4.412228335662808" Properties=species:S:1:pos:R:3:forces:R:3 structure_index=0 total_energy=-26.768585205078125 stress="-0.08397083729505539 -0.0009757009102031589 0.0007805352797731757 -0.0009755310020409524 0.023570658639073372 0.00042165513150393963 0.0007805648492649198 0.0004216725646983832 0.016343094408512115" pbc="T T T"
Zr       0.31503339       0.75667539       2.14958976      -0.00281307       0.00716640       0.00834793
Zr       2.52317831       2.95544203       2.14944586      -0.00360413      -0.00355003       0.00906781
Li       0.32228282       2.96565826       4.36941276       0.00790227      -0.01002300      -0.01962879
Zr       2.51663560       0.74466003       4.35197849      -0.00148504       0.00640662       0.00221304
