3
Lattice="2.7206464501768006 -0.015483693672731507 -0.7828220499749474 -1.4665608112438535 2.4207505321761844 -0.01842487001577694 0.010908446447215012 0.027073754709361415 5.019607728732795" Properties=species:S:1:pos:R:3:forces:R:3 structure_index=0 total_energy=-17.11849021911621 stress="0.0062008448876440525 -0.01868380978703499 0.06721128523349762 -0.01868222840130329 -0.11142520606517792 0.08587341755628586 0.06720765680074692 0.08587460964918137 -0.19215276837348938" pbc="T T T"
Co       0.13027976       0.89475762       4.30697414       0.00370300       0.00184798       0.00675818
O        1.77546935       0.22039991      -0.07141488      -0.01364994      -0.00958387      -0.00006108
O        1.19531441       1.52679585       2.88382032       0.00994690       0.00773583      -0.00669704
