9
Lattice="4.2095818519592285 0.0 -1.7106428146362305 -1.0350794613538314 4.962020090462111 -2.3500049114227295 0.0 0.0 6.6613569259643555" Properties=species:S:1:pos:R:3 pbc="T T T"
As       2.76564052       2.75623491      -1.87173486
Mn      -0.46617197       2.95774854       1.98673790
Mn       0.91662972       2.03313767      -0.53407453
Mn       3.23255809       4.05681548       2.84027986
As       0.82569448       4.79880761       3.15668780
As       0.70524459       0.90590534       1.61069942
Mn       1.85156604       4.95923078      -1.28697914
As       3.82947999       1.80303756       2.36105980
As       1.61759221       3.86128566       0.92361590
