12
Lattice="3.9658851623535156 0.0 -0.0002587787457741797 0.004652331402815499 7.926663940814202 -0.0025743418373167515 0.0 0.0 13.367180824279785" Properties=species:S:1:pos:R:3 pbc="T T T"
Eu       3.74561590       7.25701805       1.86301000
Eu       1.76083808       1.31951175      12.52588311
Eu       3.74190879       3.31105133       1.84388098
Li       1.76374957       5.27767754       3.81938951
Eu       3.74550039       7.26763909       5.80135681
Eu       1.76213520       5.28656368       8.49773183
Eu       3.74488654       3.30701931       5.80371462
Li       1.75838499       1.32293501       3.81924274
Eu       1.76100865       5.28968952      12.51474209
Eu       1.75804892       1.31560340       8.48967496
Li       3.74531369       3.30138610      10.50342745
Mg       3.74405611       7.26810210      10.50953083
