4
Lattice="2.5964310433041384 -0.0066464740301797765 0.004724268893020363 0.010604670579246585 4.097714048285732 -1.1879431596531915 -0.009647868612827041 0.08075853990091403 4.265627797229065" Properties=species:S:1:pos:R:3:forces:R:3 structure_index=0 total_energy=-29.747949600219727 stress="-0.11491566896438599 -0.018722541630268097 -0.014712006784975529 -0.018722737208008766 -0.0704057589173317 -0.032805416733026505 -0.014711889438331127 -0.032805681228637695 -0.0518697090446949" pbc="T T T"
Ni       0.29352828       1.92750582       1.25280466       0.00047927      -0.00092460       0.00052683
Co       0.29458438       4.01650548       2.79304092      -0.00115856       0.00064465      -0.00082284
Fe       1.58795808       1.96458483       3.38806624      -0.00146856       0.00022037       0.00042261
Fe       1.59623295       3.97301212       0.66245977       0.00214783       0.00005958      -0.00012661
