10
Lattice="5.418893814086914 0.0 -1.1050139665603638 -2.713970984483666 4.402585159775731 -1.6082062721252441 0.0 0.0 5.741423606872559" Properties=species:S:1:pos:R:3 pbc="T T T"
Zn       0.83391694       0.51706986       1.73346920
Fe       3.67063413       2.21598906       0.40510300
O        0.38803013       2.65411694       1.87281505
O        3.56920630       2.91951674      -1.66090168
Fe       4.44751216       1.30242943       3.35990628
Fe       1.77589172       3.07983027       3.23418912
O        2.62724269       4.07172860       0.76595254
O        2.85552364       0.77851853       1.92106178
Ge       0.88989259       3.41514418       0.13382473
O        4.55457257       0.62849857      -0.49895540
