6
Lattice="4.053499221801758 0.0 2.3371598720550537 1.3507509221818168 3.819451583407217 2.339677572250366 0.0 0.0 4.678548336029053" Properties=species:S:1:pos:R:3 sample_seed=78000 sample_index_within_seed=0 benchmark_method=C0 pbc="T T T"
Cr       4.98572398       3.57597441       6.83864838
Fe       2.28355326       3.09677862       6.84128783
Fe       1.61052687       1.19002956       3.32938602
Fe       1.60953505       1.18981260       5.67076069
Ir       3.63518704       2.62165015       4.50026222
Fe       3.63158869       1.19029023       6.83638427
12
Lattice="5.093290328979492 0.0 -0.0022922800853848457 -0.003824831315580647 8.096441319152998 0.007539565674960613 0.0 0.0 9.737617492675781" Properties=species:S:1:pos:R:3 sample_seed=78001 sample_index_within_seed=0 benchmark_method=C0 pbc="T T T"
Eu       1.75885984       3.70066451       2.89172565
Eu       4.30111265       7.42138478       7.95715921
Eu       1.75846064       0.72846910       5.48372755
Mg       4.30288053       6.38715385       4.15435143
Mg       4.30306531       2.33624688       0.57173547
Eu       4.30328371       3.37317667       6.50475323
Eu       1.75563318       4.77806368       8.97138473
Pb       4.30310837       5.44667191       1.18277312
Pb       4.30540584       1.40335444       3.53523959
Pb       1.75628334       5.53726189       5.73681486
Eu       1.75542360       7.74595780       1.83584086
Pb       1.75563152       1.48714093       8.72770839
8
Lattice="3.8303792476654053 0.0 -0.00016454947763122618 -1.9122767133286658 3.3194201551173848 0.004655605647712946 0.0 0.0 12.385763168334961" Properties=species:S:1:pos:R:3 sample_seed=78002 sample_index_within_seed=0 benchmark_method=C0 pbc="T T T"
Eu       1.20943937       0.05849598       7.54301338
O        3.12472372       1.16426505       6.49415512
Eu       1.21308660       0.05723393       1.44777772
Eu       3.12794078       1.16272506      10.68024846
O        1.21190653       0.05822402       3.76433256
Eu       1.21092661       2.27141453       4.68675109
O        1.21090595       0.05667310       9.92182187
O        3.12585051       1.16553507       0.63554581
4
Lattice="2.797614574432373 0.0 0.0010227273451164365 0.0015379026167843173 3.6479164696458146 -0.012901370413601398 0.0 0.0 4.78455114364624" Properties=species:S:1:pos:R:3 sample_seed=78003 sample_index_within_seed=0 benchmark_method=C0 pbc="T T T"
H        1.44650855       0.78716907       2.60661821
Na       0.04871426       2.61480382       3.88014171
H        1.44677935       0.79269202       0.39818070
Pt       0.04761930       0.79088744       1.50177719
11
Lattice="4.716489315032959 0.0 0.1175820529460907 -0.6574097369812228 4.996585811587262 -0.5239742398262024 0.0 0.0 5.179245948791504" Properties=species:S:1:pos:R:3 sample_seed=78004 sample_index_within_seed=0 benchmark_method=C0 pbc="T T T"
Mn       3.73584997       2.37562200       4.45785545
Mn       3.06330101       4.97242965       0.41990805
Mn       1.46459709       3.88242079       3.69188441
Co       0.65366425       1.93045389       2.60372724
Mn       3.85952710       4.78527885       3.01538378
Mn       0.64227983       3.69623819       1.00170041
Mn       1.35558011       1.22599380       0.05801051
N        3.00874840       0.56564468       4.41485101
N        2.14332590       3.08777880       0.11556012
Ir       3.02334648       2.64222024       1.90230799
N        0.59009860       0.38946149       1.71644979
12
Lattice="4.043799877166748 0.0 0.6604021787643433 0.10109424419302805 3.9987051185332674 -0.6490206122398376 0.0 0.0 12.726438522338867" Properties=species:S:1:pos:R:3 sample_seed=78005 sample_index_within_seed=0 benchmark_method=C0 pbc="T T T"
Co       3.91874400       1.34114693       1.91729989
Eu       0.71191736       2.54889799       8.85336602
Co       3.39344445       3.92893759       5.12204457
Eu       1.52570445       1.71981731       3.85861401
Co       2.34454828       2.93394066      11.52855864
Co       0.27776645       0.94167215      11.53261783
As       3.14450502       2.13262783       6.68119671
As       2.06941845       1.17078288       0.53988468
As       1.07118545       0.13255631       6.66345621
Co       2.88807649       0.33647692       8.23491857
As       2.51021239       0.72177772      10.53160743
As       3.77223170       3.54242649       2.80320197
12
Lattice="3.5427656173706055 0.0 -0.0008777578477747738 -0.002439753940097184 5.173900029014768 -0.1272176057100296 0.0 0.0 7.7354536056518555" Properties=species:S:1:pos:R:3 sample_seed=78006 sample_index_within_seed=0 benchmark_method=C0 pbc="T T T"
Fe       1.69887922       1.57872525       1.93122004
Ni       3.47068742       2.81380058       0.58553253
Fe       1.70007101       1.59535294       4.49621152
Ni       3.46966638       0.25197998       5.83523470
Ni       1.69665192       4.09976386       1.86553644
Fe       3.46965785       2.79438783       5.76336665
Ni       1.69786640       1.52447077       7.08217457
Ni       3.47015078       2.85469782       3.18275995
Fe       3.47031027       0.26263299       0.67564276
W        3.47206506       0.24963771       3.26060445
Ni       1.69667104       4.12928588       4.44928905
W        1.69542508       4.11692352       7.03654524
15
Lattice="3.0908405780792236 0.0 0.014061382040381432 -0.008691627863562893 6.706274599111536 -4.19699764251709 0.0 0.0 8.458054542541504" Properties=species:S:1:pos:R:3 sample_seed=78007 sample_index_within_seed=0 benchmark_method=C0 pbc="T T T"
V        2.16677512       0.67650313       5.83772608
O        2.16888594       0.44826678       3.66008399
Mn       0.61484686       5.55352453      -0.39861651
Mn       2.16226546       3.76103160      -2.27311224
V        0.62081319       3.67761536       1.51317518
O        0.62101084       5.27511678      -2.55347701
O        2.16692880       3.33405342       2.97612987
Mn       2.16678661       5.31270374       3.40947507
O        0.61965632       2.20335019       5.84309425
Mn       0.61631067       2.03736534      -0.37716134
O        0.62045423       5.76421964       1.85469658
O        2.15897322       0.61708684       8.05587485
O        2.16576389       3.76492212      -0.07830104
Mn       2.17003521       0.05149446       1.61060624
Fe       0.62197677       1.98433201       3.62639079
