6
Lattice="2.9625086784362793 0.0 -0.0009508323855698109 -0.0018135479032504915 2.963526647700496 -0.0012012815568596125 0.0 0.0 8.713869094848633" Properties=species:S:1:pos:R:3 sample_seed=78000 sample_index_within_seed=0 benchmark_method=M1 pbc="T T T"
Al       0.27904452       0.89462130       6.58940510
Fe       0.27692120       0.89342236       3.34495624
Pd       1.75954041       2.37771879       5.02070193
Fe       1.75889753       2.37678136       2.00004300
Fe       1.75736707       2.37628571       8.03578464
Fe       0.27730867       0.89386988       0.59915158
12
Lattice="4.19341516494751 0.0 0.0001327885256614536 0.009315291653706512 8.167065076320641 0.02116749994456768 0.0 0.0 9.720605850219727" Properties=species:S:1:pos:R:3 sample_seed=78001 sample_index_within_seed=0 benchmark_method=M1 pbc="T T T"
Eu       3.22330297       4.30402926       5.08104840
Eu       3.21752702       0.22221155       6.58016047
Eu       1.12793963       3.50431049       1.72387968
Ge       1.13027709       6.06521954       6.96864667
Na       1.13037925       6.92604691       3.99438103
Eu       1.13116606       7.58837047       0.22032157
Ge       1.12456825       1.97507779       4.70252921
Na       3.22443633       4.96657139       8.84937452
Na       1.12565867       2.84431624       7.67989871
Ge       3.22065301       1.74667211       9.56309857
Na       3.21974153       0.88092567       2.81397955
Ge       3.22524261       5.83080292       2.10343680
8
Lattice="2.5108721256256104 0.0 -0.3865867555141449 -0.05554318420642871 4.354733077180242 -0.349311888217926 0.0 0.0 8.337141036987305" Properties=species:S:1:pos:R:3 sample_seed=78002 sample_index_within_seed=0 benchmark_method=M1 pbc="T T T"
Cu       2.10666568       2.54463165       5.53623692
Mn       0.87299805       0.37058059       5.86005849
Ni       1.80780481       0.90652282       3.59880273
Ni       1.48518760       2.19650095       1.51864882
Ni       0.19920786       4.35234900       1.50807565
Cu       2.44085502       1.30136539       7.69953075
Ni       1.15360105       3.48458467       7.70247049
Ni       0.52319297       3.07294790       3.61934364
4
Lattice="2.805737257003784 0.0 -0.6372207999229431 -0.14466233286313665 2.8023833376119724 -0.6386700868606567 0.0 0.0 6.444227695465088" Properties=species:S:1:pos:R:3 sample_seed=78003 sample_index_within_seed=0 benchmark_method=M1 pbc="T T T"
Mn       2.21735203       0.73338565       2.57095239
Ag       0.32150356       1.68968227       0.74465916
H        2.62934931       1.17773951       4.41196800
Pd       1.15583843       2.56990544       4.38921148
11
Lattice="2.6915783882141113 0.0 0.5331058502197266 1.1355555316450452 6.13912886024241 1.3751380443572998 0.0 0.0 7.122908592224121" Properties=species:S:1:pos:R:3 sample_seed=78004 sample_index_within_seed=0 benchmark_method=M1 pbc="T T T"
Mn       0.53830250       1.44950113       4.80458423
Mn       1.90827984       3.61666914       4.97419672
Mn       1.40750894       3.38833469       7.52741644
Ir       2.98695810       5.30823004       6.61798646
N        1.67149530       2.19290760       6.14894650
N        2.50262698       3.62674660       1.95097849
Mn       2.03098665       6.05704445       4.37075105
Mn       0.95017677       4.41722034       2.73883250
Mn       2.30306897       2.06519711       2.94646193
Ir       1.41304987       0.70620013       7.47246770
N        2.47797993       0.27639067       2.05784182
12
Lattice="3.4329586029052734 0.0 0.9655322432518005 1.0335716403199058 5.8103746235511196 2.9018030166625977 0.0 0.0 6.585391044616699" Properties=species:S:1:pos:R:3 sample_seed=78005 sample_index_within_seed=0 benchmark_method=M1 pbc="T T T"
Co       4.10848526       5.23733506       7.48856398
Co       1.49203554       3.29947037       3.62375380
Co       2.27490387       1.34371989       7.42423244
Ni       0.96791462       0.37714658       5.49225801
Ni       3.59231123       2.34363570       2.74038685
Ni       1.62372806       0.86384391       3.16092849
Co       2.13441263       3.76696591       7.92698069
Li       2.79927342       4.24408791       5.56294353
Ni       2.94002011       1.83395982       5.06437560
Co       1.33921214       5.73796423       4.16471818
Ni       3.45082514       4.75549438       3.24162266
Ni       0.82187628       2.80516510       6.00532256
12
Lattice="3.530493974685669 0.0 0.00048552697990089655 -0.0011630795538987767 4.998136861897072 0.024525895714759827 0.0 0.0 7.498724937438965" Properties=species:S:1:pos:R:3 sample_seed=78006 sample_index_within_seed=0 benchmark_method=M1 pbc="T T T"
Fe       1.36926165       4.49163254       7.10544082
Fe       3.13631158       0.70101095       3.28314427
Ni       1.37029361       1.98671759       7.08234312
Ni       3.13560735       0.74765804       5.81012390
Ni       1.37009809       4.50487951       4.60061766
Fe       1.36920989       2.02374599       4.59908326
Ni       3.13570622       3.22377554       3.33647409
Ni       3.13541464       3.23519958       0.82561492
Ni       3.13670427       0.74254415       0.82117794
Ni       1.37108327       1.98083248       2.11066025
Ni       1.37035853       4.48441473       2.07390657
Ni       3.13507060       3.24324470       5.85353084
15
Lattice="5.030647277832031 0.0 -0.7273081541061401 0.8186635002351033 5.074612077325316 -1.4628896713256836 0.0 0.0 7.782189846038818" Properties=species:S:1:pos:R:3 sample_seed=78007 sample_index_within_seed=0 benchmark_method=M1 pbc="T T T"
O        4.65393665       2.30734169       1.96516296
Eu       3.13988285       0.44247196       2.62648758
O        4.19582550       0.99587549       6.87512512
Fe       0.75804289       0.96951957       5.97871797
V        0.81448237       3.14530219       4.06609069
O        5.72323791       4.69280635       2.49235333
V        5.30374057       1.99848714       0.27512901
Fe       0.74339236       4.22957921      -0.92709490
O        1.03873601       0.40745651       1.58148149
O        2.04850839       4.17436897       5.34617622
O        4.70188902       2.88239669       4.77046168
O        4.36369254       3.67721856      -0.43032248
O        1.63968866       2.42758957      -0.35602920
O        2.06230451       1.75530211       4.42326462
Fe       3.16144240       2.63120406       6.03499677
