6
Lattice="2.622080087661743 0.0 -0.0015061073936522007 -0.004573662014943477 2.6221814799398073 -0.002281076041981578 0.0 0.0 10.091586112976074" Properties=species:S:1:pos:R:3 sample_seed=78000 sample_index_within_seed=0 benchmark_method=M2 pbc="T T T"
Al       0.69326104       1.62938981       8.51675762
Ni       2.00754668       0.31914032       3.47503920
Ni       2.00633199       0.31825728       6.86888634
Fe       0.69495034       1.63052185       1.78360446
Fe       0.69356617       1.63034211       5.16383616
Ni       2.00867312       0.32080138       0.05934415
12
Lattice="5.726823329925537 0.0 -2.178626298904419 -0.8034800664785138 5.6750441604774755 -2.171719789505005 0.0 0.0 8.661356925964355" Properties=species:S:1:pos:R:3 sample_seed=78001 sample_index_within_seed=0 benchmark_method=M2 pbc="T T T"
Ge       3.96999739       0.72642133       4.21698519
Eu       3.95996821       4.05486511       4.22856106
Eu       1.09827288       4.05785431       0.98542144
Ge       1.11002222       0.73091899       0.97373090
Eu       4.37141689       1.22285369       0.97867572
Eu       1.50765310       1.22491039       6.39894448
Ge       4.76899308       1.70689445      -2.26513324
Ge       1.90200957       1.70854481       3.15562935
Pd       0.68816889       3.58867826       4.24290984
Ge       1.52384907       4.50950549      -2.27553803
Ge       4.39000450       4.50919666       0.96608298
Pd       3.54908996       3.58869551      -1.17951014
8
Lattice="3.5154082775115967 0.0 -0.0007595072966068983 -1.7600138395255704 5.6820916752962605 -0.9721227288246155 0.0 0.0 6.066697597503662" Properties=species:S:1:pos:R:3 sample_seed=78002 sample_index_within_seed=0 benchmark_method=M2 pbc="T T T"
Eu       1.35020938       1.04177212       1.71256069
Mn      -0.40930927       3.87050384       2.70963753
Eu       3.10694644       1.01851638       4.67355110
O        1.34738286       5.19322099       1.77953912
O       -0.40807112       2.48608750       0.75878029
Eu       1.34954932       3.87005238      -0.32566497
O       -0.41007941       5.25622545       4.65712894
O        1.35004569       2.54610075       3.63578496
4
Lattice="3.275763750076294 0.0 -1.377630591392517 -0.5820328233305114 3.2295743412492035 -1.381304383277893 0.0 0.0 4.592020511627197" Properties=species:S:1:pos:R:3 sample_seed=78003 sample_index_within_seed=0 benchmark_method=M2 pbc="T T T"
Mn       2.83488316       1.16900462       1.01739307
Mn       1.87078701       1.97617626      -1.28136651
Ni       0.52439070       0.36238733       0.10108366
Ni       0.90745800       2.78413059       1.01651668
11
Lattice="4.780811309814453 0.0 1.9024864435195923 0.8474176291461997 4.62870954976258 1.6526954174041748 0.0 0.0 5.175652027130127" Properties=species:S:1:pos:R:3 sample_seed=78004 sample_index_within_seed=0 benchmark_method=M2 pbc="T T T"
Mn       0.91926661       2.10610001       2.59874595
Mn       4.01158296       0.47541290       6.71107841
Mn       1.65882371       4.53433249       3.19019464
N        5.07267711       1.62356567       2.71848778
N        4.74526364       3.70670025       4.56011912
Mn       3.68214785       2.85519667       3.11944416
Fe       1.22235434       2.99336313       5.15737161
N        3.31838277       4.45846148       7.35780944
N        2.27075828       2.14129701       3.94738453
Ir       2.41642714       0.14968180       3.73901262
N        0.45290938       0.30577045       3.33771656
12
Lattice="3.520500659942627 0.0 -0.0004609585739672184 0.0004010479170070547 4.98395536716506 -0.03009762056171894 0.0 0.0 7.464087963104248" Properties=species:S:1:pos:R:3 sample_seed=78005 sample_index_within_seed=0 benchmark_method=M2 pbc="T T T"
Co       3.27249970       0.62686854       2.40025994
Ni       3.27256496       0.62164340       4.88987912
Co       1.51126459       1.86155852       3.64023731
Ni       3.27254340       3.11792138       2.38799132
Ni       3.27214545       3.11934760       4.88666604
Ni       3.27263602       3.12152273       7.35192745
Co       1.51126654       4.36443336       6.13971030
Co       1.51270817       4.37802833       1.13520499
Ni       3.27185950       0.63485667       7.37654730
Co       1.51289681       1.87710106       6.09946427
Ni       1.51268845       4.36106641       3.62023879
Ni       1.51219963       1.87851124       1.15455044
12
Lattice="3.528815984725952 0.0 0.00033680052729323506 -0.0004973327596780757 4.767104122922385 -1.588424801826477 0.0 0.0 7.9362921714782715" Properties=species:S:1:pos:R:3 sample_seed=78006 sample_index_within_seed=0 benchmark_method=M2 pbc="T T T"
Fe       0.83683340       4.01065766       4.41043019
Fe       2.60134012       0.95200866       6.77126299
Fe       2.60093427       1.70511311       1.21954277
Ni       0.83624777       0.89985220       2.79012437
Ni       0.83690307       0.10748364       0.42434605
Fe       2.60090651       0.12440387       4.35571225
Ni       2.60135543       3.31121739       5.96176823
Ni       0.83699885       1.68894162       5.17935823
Ni       0.83699890       2.50949070      -0.37311178
Ni       2.60071438       4.08700451       0.42553721
Ni       2.60029186       2.49387513       3.57430141
Ni       0.83586401       3.29057649       1.99837835
15
Lattice="4.5548176765441895 0.0 2.510899782180786 1.514061221901784 4.416715122388513 2.357808828353882 0.0 0.0 5.297304630279541" Properties=species:S:1:pos:R:3 sample_seed=78007 sample_index_within_seed=0 benchmark_method=M2 pbc="T T T"
Mn       4.60076752       1.92552479       5.46464763
H        1.54462658       3.12150699       5.49373543
Mn       4.62288297       1.99787893       8.05985893
H        4.49488778       3.45748629       4.90892263
V        2.22066180       1.94418890       4.20127882
H        3.18987176       2.77741227       3.09104119
H        3.07841594       0.90009788       5.55544994
H        3.81417005       3.09885296       6.68276682
Fe       3.05615464       4.29990521       7.94383282
V        5.37060605       4.17866943       6.53245268
Mn       3.05163521       4.22180668       5.33128843
H        3.08022907       0.90522467       2.82185095
H        0.82127730       0.93190614       1.61300531
Mn       2.29994025       2.04267891       6.84251060
Fe       5.42472309       4.28837404       9.18342932
