20
Lattice="4.48940851205691 0.008179355304844262 -0.08395890421661545 0.16920173033735667 6.810913245774035 -1.6583448217095296 -0.05629287989173081 -0.09330297676530104 6.9299297082661" Properties=species:S:1:pos:R:3:forces:R:3 structure_index=0 total_energy=-151.2909393310547 stress="0.0062482948414981365 -0.00021001181448809803 0.000265197129920125 -0.00021072551317047328 0.006938903592526913 0.0015936702257022262 0.00026462902314960957 0.00159369851462543 0.005849821493029594" pbc="T T T"
Co       3.08438323       5.81190719       1.09103744      -0.00134955      -0.00619057       0.00225727
Co       1.48315782       0.81736225       4.09435498      -0.00600864       0.01178643       0.00539866
Co       3.06119573       2.87839863       5.00025355       0.00243446       0.01973619      -0.00510503
Ti       3.56914541       0.08456675       5.03978293      -0.01221805       0.01918419       0.00078207
Co       3.11522717       4.41905684       3.14609801      -0.00084092       0.01200549      -0.00266942
Co       3.88558046       3.42685665       0.83470048      -0.00660367      -0.01016203      -0.00762790
Co       0.80682096       3.58977928       4.18228528       0.00452638       0.00727063      -0.01313516
Co       0.63291677       1.63002448       6.49025178      -0.01086289      -0.00946502       0.00517535
Co       3.05090064       0.73235678       0.71944701       0.00651026      -0.01062276       0.01359332
B        2.57802443       2.32095023      -0.21474200       0.00966941      -0.03950742      -0.02894257
Ti       1.59674873       5.86977190       4.77518995      -0.00796990       0.00500213       0.00530186
C        0.13980481       1.92633371       4.70564858      -0.00022027       0.01654634       0.00504127
Co       0.74343606      -0.01380478       1.75484786       0.00514179      -0.00682405       0.01657836
C        0.17564742       5.09101355       0.47437857       0.00065866      -0.01024610       0.00196024
Ti       1.60031291       2.71523820       1.95726234       0.00565543      -0.00273970      -0.01468512
Co       3.83660513       1.85267453       2.89078225       0.00423321       0.01257062      -0.00064433
C        2.36933948       0.72822674       2.44692630       0.00878423       0.00047050       0.01396556
Co       0.86857474       5.19771113       2.25453562      -0.00304682       0.00465120       0.00098532
Co       3.86328559       5.07983333       5.55148113       0.00326946       0.00468278       0.00364774
Co       1.64712570       4.17101472      -0.25880324      -0.00176269      -0.01814890      -0.00187740
