9
Lattice="5.899278163909912 0.0 -0.48472848534584045 -3.8140456738676676 5.641534741120362 -0.5212295055389404 0.0 0.0 7.093515872955322" Properties=species:S:1:pos:R:3 pbc="T T T"
Eu      -1.40602123       3.89262634       1.86404699
Ag       0.53430701       3.46677211       4.43091478
Eu       5.41519711       0.27420847       2.99077961
Eu       0.48788567       1.02239210       6.86671715
Ge       2.00669596       2.08022451       2.43147247
Ge       1.26917120       4.01395527       0.04892356
Ag       3.47295428       0.68997592       0.43185032
Ge       2.75492530       0.14683586       4.82250229
Eu       3.51442996       3.14712210       5.06965384
