8
Lattice="3.631408929824829 0.0 0.006979459431022406 0.013253179119978383 6.5100105802413335 -3.2457077503204346 0.0 0.0 8.124981880187988" Properties=species:S:1:pos:R:3 pbc="T T T"
Eu       3.16169024       5.56617985       2.88100950
Pt       1.34600154       4.82457708       5.33296118
Eu       3.15682586       2.40648404       4.45542036
Eu       3.15228657       0.72687148       1.33367643
Pt       1.34021528       3.17844837       2.05038746
Au       1.33757614       1.56696211       6.95347960
Eu       3.16156768       4.07841227      -0.33097310
Pt       1.34737290       6.46544143       0.48881766
