12
Lattice="4.1556243896484375 0.0 0.9499669075012207 1.784227384096709 7.302818057346351 1.7607282400131226 0.0 0.0 9.55308723449707" Properties=species:S:1:pos:R:3 pbc="T T T"
Eu       2.81522300       5.78894904       4.97504036
P        2.01659495       1.40673047       8.45594636
Eu       1.35192706       2.28202443       1.80004005
Eu       5.64883144       6.51843576      11.67791482
Eu       4.02413030       3.73037656       9.23729533
Eu       0.46060277       0.92005062       5.68897649
P        3.16745962       0.53324136       3.42643193
P        4.80521990       3.64854204       5.82966356
P        3.39288802       4.49485341       2.42298579
P        2.13738577       5.46211634       7.93343079
Pt       2.96778283       2.77338650       4.28608311
Pt       2.39742927       3.27712081       6.80660497
