15
Lattice="3.5454666725235295 -0.005660071067223228 0.001215265977009541 0.015664777129071907 8.118559340293363 -0.0006027580535980238 -0.005028239709941961 0.01204881408979087 8.117084336291734" Properties=species:S:1:pos:R:3:forces:R:3 structure_index=0 total_energy=-131.25643920898438 stress="-0.004546264186501503 0.00015229283599182963 -0.000122700774227269 0.00015211402205750346 -0.013269070535898209 -0.0007731781806796789 -0.00012127146328566596 -0.000771664606872946 -0.013422110117971897" pbc="T T T"
O        2.45893845       0.24765586       6.86944098       0.04660720       0.00887778      -0.01814000
Eu       0.70059225       2.07063038       2.94681780       0.03509413       0.01188128      -0.01008005
Eu       1.93953694       2.52870520       6.78890005      -0.01826384      -0.02251130      -0.01690638
O        2.47044398       2.60279202       4.51040032       0.04260172      -0.01939925       0.01311896
Eu       1.94936324       6.34426145       2.49494087      -0.01926074       0.01632781       0.01570803
O        0.20418409       6.46731653       0.67248980      -0.04129880       0.00015691      -0.01596941
Eu       0.70522934       6.80520357       6.33654883       0.03305263      -0.01229809       0.01063782
Fe       3.14786017       4.43377201       4.64248181      -0.00296506       0.00105762      -0.00160625
Fe       3.13803913       0.36863082       0.58448206       0.00005458       0.00150537      -0.00136623
O        0.20297455       4.52475007       2.61718453      -0.04468039      -0.01355024       0.00203857
O        2.46600531       0.50371727       2.41712178       0.04580028      -0.01174566       0.01608860
O        0.20027771       4.35210598       6.66593980      -0.04528575       0.01721030       0.00056937
O        0.19668873       2.39745384       0.49355667      -0.04147337       0.00027424       0.01465210
Fe       0.16699119       4.43236649       0.58337172      -0.03459720       0.00163471      -0.00198877
O        2.47381005       6.26620268       4.77398428       0.04461427       0.02057862      -0.00675645
