12
Lattice="4.95897912979126 0.0 0.8620690107345581 2.406104811447135 4.336217425094727 0.8639806509017944 0.0 0.0 14.74446964263916" Properties=species:S:1:pos:R:3 pbc="T T T"
Eu       2.79572477       0.66979320      13.18011829
Pt       3.33469559       0.98769863      10.06966945
Pt       2.57252219       3.45912956      14.48219017
Eu       5.94818383       2.52788581       9.73146527
Eu       1.74628334       0.05119219       4.50153305
Eu       4.90868783       1.91267553      15.72593377
Eu       3.08815581       3.76432948      11.49695896
Eu       2.05304245       3.15029286       2.73589867
Pt       2.26135023       0.35718029       1.53176519
Eu       3.85430327       1.29550872       7.09269175
Pt       5.42409710       2.21777956      12.74748931
Pt       6.47799452       2.84063272       6.66980407
