12
Lattice="5.590911388397217 0.0 0.023066390305757523 0.06485848893222716 11.099878604342276 0.11227421462535858 0.0 0.0 9.023336410522461" Properties=species:S:1:pos:R:3 pbc="T T T"
Ba       4.70352810       7.61858547       0.44195856
I        1.88023531       4.86513219       7.06124754
Ba       4.66825645       4.13851598       4.91648508
I        4.68257554       4.05871459       1.29769206
I        4.69964282       7.69501070       5.85461309
I        4.67029681       1.36352210       7.04462065
Ba       1.90905639       9.67403925       4.78308833
I        4.71032830      10.37109498       2.62368822
I        1.91872485       9.63948697       8.39555174
Ba       1.88539197       2.09261378       0.17439956
I        1.90358280       6.90920472       2.59533783
I        1.86776272       2.12201895       3.79605067
