12
Lattice="5.363104341289651 -0.011910117979063058 0.011285199941063856 0.038564000388348806 10.910903120552254 0.05640708496528354 -0.018826015598724117 -0.04484471696762299 8.97776972435899" Properties=species:S:1:pos:R:3:forces:R:3 structure_index=0 total_energy=-41.23292541503906 stress="-0.006713458336889744 3.948471203329973e-05 -6.073194526834413e-06 3.956565706175752e-05 -0.00919288769364357 -6.0893835325259715e-06 -5.934876753599383e-06 -6.106993168941699e-06 -0.00734122795984149" pbc="T T T"
Ba       4.49447996       7.20244943       0.34722510      -0.00108714      -0.04522101      -0.01159078
I        1.78255166       4.81286181       7.21920419       0.00087057       0.01192839       0.03272452
Ba       4.46633162       4.31379442       4.81292064       0.00106515       0.04526816      -0.00846993
I        4.47769940       3.81583379       1.24452470      -0.00075357      -0.03538058      -0.01131420
I        4.47927307       7.68925525       5.76143111       0.00064602       0.03355657      -0.01214735
I        4.45938005       1.20481011       6.78080244      -0.00109142      -0.01370987      -0.03100531
Ba       1.80380660       9.77502254       4.74550293       0.00089261       0.04290956       0.01195276
I        4.49345725      10.28488371       2.34573468       0.00076630       0.01389483      -0.03192963
I        1.80012623       9.24177195       8.31095009      -0.00034038      -0.03358409       0.00935504
Ba       1.79447340       1.75351674       0.20854897      -0.00097936      -0.04345223       0.01099004
I        1.80465952       6.68211933       2.74946327      -0.00054921      -0.00997803       0.03022654
I        1.78300360       2.24817622       3.77803495       0.00056046       0.03376830       0.01120829
