16
Lattice="3.089301109313965 0.0 0.4299980103969574 1.5638163981706155 5.173869254796944 0.13445553183555603 0.0 0.0 11.483748435974121" Properties=species:S:1:pos:R:3 pbc="T T T"
Mn       2.86223583       2.79602015       3.06026440
Mn       1.49530686       0.38607721       1.51544485
Fe       2.18573568       1.62338335       7.96398058
Mg       3.37059743       1.23750138      10.83524728
O        2.40545289       0.51980021       6.31428309
Mn       2.66592574       0.04369469       4.44126569
O        3.09809030       1.64589326       1.33516756
O        3.31234872       5.08993875      11.31312411
Fe       2.35706226       4.32818057       6.75335840
Fe       3.52794802       3.93767551       9.73589674
O        1.94129768       2.40222799       9.79665128
O        0.55100094       0.28724695       8.40268772
O        3.79381802       3.03047510       7.72673855
O        1.39288063       4.33392643       2.32960874
O        2.61921028       3.91236282       4.82986237
O        1.24407201       1.26127699       3.36040119
