10
Lattice="5.376688177128264 -0.04441856933371227 -1.0263642781858842 -2.750906473904353 4.3683678778429 -1.6015574085774147 0.08189174433551963 0.05657494807680735 5.734366220325515" Properties=species:S:1:pos:R:3:forces:R:3 structure_index=0 total_energy=-59.35651397705078 stress="-0.028278697282075882 0.004734007176011801 -0.006319731008261442 0.004732751287519932 -0.026540620252490044 -0.003162182169035077 -0.006319704931229353 -0.0031611830927431583 -0.019090648740530014" pbc="T T T"
Zn       0.84053434       0.53408811       1.70684359      -0.00279629       0.00436755      -0.00905988
Fe       3.61007858       2.15197364       0.48095671      -0.01994553      -0.02156029       0.00089223
O        0.35396807       2.67307828       1.93848231      -0.02106568      -0.00135405       0.01865896
O        3.51104399       2.82722530      -1.55405182      -0.00203903      -0.00530131       0.00875369
Fe       4.55686053       1.32902950       3.43702935       0.04078904       0.02629584      -0.00212301
Fe       1.85061909       3.00039820       3.23049719       0.01392816      -0.01367217      -0.01789373
O        2.56313363       4.04413303       0.85270052      -0.00921834      -0.00114688       0.00763745
O        2.84823471       0.84246160       1.98448028      -0.00799473       0.01454565      -0.00218663
Ge       0.83795496       3.42337427       0.18913399      -0.00412604       0.00800124       0.00439453
O        4.54215613       0.53723712      -0.43546470       0.01246813      -0.01017561      -0.00907395
