16
Lattice="2.908709764480591 0.0 0.5105841159820557 1.0803704910873784 7.291697021484035 2.355344295501709 0.0 0.0 8.442808151245117" Properties=species:S:1:pos:R:3 pbc="T T T"
Fe       2.25251804       2.62325628       3.29566411
Mn       2.46237892       7.08007161      10.46742860
Fe       0.40297237       1.16453857       5.26712890
H        1.00265746       4.50900525       1.82136906
O        1.15428201       5.76746160       9.42437851
O        2.93798186       4.07344135       7.81069343
H        2.93427825       3.08762766       7.86672863
Fe       1.48712065       5.33620839       7.53702500
O        0.78810060       1.03123255       3.05023393
O        2.96942894       1.09441679       7.63705891
Mn       3.34732796       6.88249125       5.50752512
O        2.99323518       6.92264228       7.52408051
O        1.85225143       5.68764978       5.46207098
O        1.92266830       2.40908071       5.13920810
O        3.67095214       6.96055388       3.69000432
O        0.92204570       3.58732524       2.30797252
