8
Lattice="6.730416612098113 -0.0009768352707753894 3.8894650468192613 2.2402901564290225 6.345726840553672 3.892271653909202 -0.002975322129227306 -0.0035742432235583623 7.774730518209098" Properties=species:S:1:pos:R:3:forces:R:3 structure_index=0 total_energy=-77.94889831542969 stress="0.0017344873631373048 -0.0008637806167826056 -0.00010535751061979681 -0.0008637407445348799 0.0020054446067661047 0.0009095793939195573 -0.00010525319521548226 0.0009095626883208752 0.0031513937283307314" pbc="T T T"
Eu       4.38609422       0.03123937       5.29341102       0.00149403      -0.00316336       0.00148684
Eu       5.50636531       3.20101792      11.12857977      -0.00353912       0.00132337      -0.00296416
Eu       1.02286408       0.03276407       3.35135129      -0.00229493       0.00047550      -0.00162153
Eu       4.38605633       0.02812416       9.18374926       0.00056554       0.00037896      -0.00268048
Eu       2.14100410       3.20128594       9.17857156       0.00066899       0.00179387       0.00895705
Eu       1.02163892       0.03006445       7.23847442      -0.00178095      -0.00474447       0.00030594
Eu       2.14126294       3.20260037       5.30192754      -0.00110362       0.00337540      -0.01062301
Y        5.50230146       3.20254676       7.23364120       0.00599007       0.00056072       0.00713935
