11
Lattice="4.027248423466026 -0.003123228239997532 -1.2230375096930497 0.09411928348464899 4.632015547453344 0.2980818227291555 0.00531311784406445 0.045440226993169214 7.25912092879414" Properties=species:S:1:pos:R:3:forces:R:3 structure_index=0 total_energy=-82.12261962890625 stress="0.029161714017391205 -0.0013841313775628805 0.001319926232099533 -0.0013837048318237066 0.046322986483573914 -0.0049306354485452175 0.0013199615059420466 -0.00493005383759737 0.03213335946202278" pbc="T T T"
Ge       0.94591622       2.26963982       2.10351336       0.00905451       0.03650397       0.01569338
Fe       1.39482325       4.46639878       3.57500554       0.00400366      -0.00717975       0.00861159
Fe       0.24587579       2.78726151       7.03897555       0.00004697      -0.03526302       0.00190755
Fe       1.71122927       1.93308793       4.62309058      -0.00305433      -0.00267904      -0.00536748
Fe       2.85973692       3.60849233       1.15872251      -0.00007082       0.04761142       0.00832815
Ge       2.15965618       4.12699006       6.09505263      -0.00614943      -0.02939619      -0.01766316
Fe       3.88052808       0.71103575       4.52893608      -0.00206297       0.02090443      -0.01488013
Ge       3.56689270       3.19788798       3.48806160      -0.00288227      -0.00081816      -0.00601937
Fe       2.43841404       1.55892940      -0.22089448      -0.00004572      -0.02971833      -0.00821236
Fe       0.56749341       0.16060249       0.86251878       0.00088924       0.02268161       0.00249591
Fe       3.15868084       1.05174568       2.14845178       0.00027130      -0.02264696       0.01510581
