5
Lattice="3.95616779026757 -0.0023795624119886637 -0.010440376612421289 0.003117825497875707 3.955531532030805 0.024699042088758186 0.008078296828853342 -0.01916101136185219 3.955367630710902" Properties=species:S:1:pos:R:3:forces:R:3 structure_index=0 total_energy=-37.55747985839844 stress="0.010104406625032425 0.014366662129759789 -0.04778458923101425 0.014365560375154018 -0.018345708027482033 0.11318370699882507 -0.04778541997075081 0.11318269371986389 -0.02516879513859749" pbc="T T T"
La       0.11496394       1.69724756       3.22919259       0.00355856       0.00243632      -0.00308189
O        2.09416983       3.67225815       3.23613521       0.00605870       0.00391430      -0.02358782
Fe       2.09137011       3.68409518       1.25659647       0.00375344      -0.00350116       0.02375670
O        0.11398757       3.68646163       1.26233802      -0.01799477       0.00037924       0.00195735
O        2.09007336       1.70621067       1.24576122       0.00462392      -0.00322867       0.00095568
