7
Lattice="4.613446255263816 0.008315277423330292 -1.325885713140581 -0.3883373815478574 4.5966651197998365 -1.3274889861862453 -0.01844068855347694 -0.018441845281020535 8.61517957912229" Properties=species:S:1:pos:R:3:forces:R:3 structure_index=0 total_energy=-63.7348747253418 stress="0.037317607551813126 0.011295054107904434 0.0002857726067304611 0.01129513792693615 0.04009618982672691 0.0008782706572674215 0.00028544801170937717 0.0008783699595369399 0.005413874052464962" pbc="T T T"
O        2.67251920       2.32476760       4.70499133      -0.00511095      -0.00305168      -0.01299999
Ge       1.10850116       0.62123722       7.94178034      -0.00041624      -0.00116973       0.00364450
Eu       1.93375902       1.51899607       2.13532335       0.00274312       0.00351152       0.00591348
Eu       2.86008630       0.01961972       5.34618846       0.00097708      -0.00171713       0.00416083
Eu       0.35922884       2.31334003       5.34592166       0.00180578       0.00262523       0.00180824
Eu       3.41398509       3.13284313      -1.39275979      -0.00020438      -0.00107200       0.00138012
Ge       4.22366631       4.01437538       1.42437123       0.00020557       0.00087383      -0.00390717
