8
Lattice="3.386136054992676 0.0 0.6096761226654053 -0.11874888517381549 3.374250059876575 0.6022732853889465 0.0 0.0 19.55988121032715" Properties=species:S:1:pos:R:3 pbc="T T T"
Ce       2.15611031       3.12112342      16.76640501
Ce       2.60301628       0.07544258       4.62504208
Si       0.83020846       1.75292015      14.40610375
Ce       1.27729980       2.21620714       2.15713516
Ce       1.60452396       2.54425939      10.03191529
Ce       0.41081839       1.30889632       6.96564331
Ce       0.07358880       0.98134185      18.71175555
Ce       2.88733743       0.37998802      12.69612136
