8
Lattice="3.389094903952448 0.005563487093800611 0.6078697529927607 -0.11400650270577152 3.3876579643913116 0.6043644878120517 0.2683498686432617 0.29793558390984304 18.01151559998087" Properties=species:S:1:pos:R:3:forces:R:3 structure_index=0 total_energy=-47.698883056640625 stress="-0.03294099494814873 0.0017149647464975715 -0.008213868364691734 0.0017150435596704483 -0.033589448779821396 -0.009025977924466133 -0.008213700726628304 -0.009026175364851952 0.01207513827830553" pbc="T T T"
Ce       2.35474139       3.35494900      15.64260895       0.00519389       0.00394525      -0.02524856
Ce       2.65847015       0.14334046       4.25874708      -0.00706475      -0.00512838       0.03149848
Si       1.02300621       1.97140887      13.32337724       0.00540647       0.00703486      -0.04414846
Ce       1.30553440       2.25184011       2.04402874       0.00199911       0.00121331      -0.02741860
Ce       1.73484762       2.69715775       9.31738443       0.00555717       0.00599954      -0.00778092
Ce       0.50104436       1.41364018       6.49246996      -0.00150603       0.00103830       0.00588853
Ce       0.33202506       1.26594727      17.22036546      -0.00427771      -0.00826697       0.02594474
Ce       3.08552562       0.59936481      11.57590061      -0.00530813      -0.00583592       0.04126482
