12
Lattice="4.1556243896484375 0.0 0.9499669075012207 1.784227384096709 7.302818057346351 1.7607282400131226 0.0 0.0 9.55308723449707" Properties=species:S:1:pos:R:3 pbc="T T T"
Eu       2.81525177       5.79730705       4.97451575
P        2.01810974       1.41507032       8.44885470
Eu       1.35436928       2.27913329       1.78864103
Eu       5.64788441       6.52615197      11.68257492
Eu       4.02189038       3.72488734       9.24966298
Eu       0.46059107       0.92120832       5.68965025
P        3.16766942       0.53522689       3.42572210
P        4.80453894       3.64243424       5.83197951
P        3.39195320       4.48757096       2.42796346
P        2.13808421       5.45007498       7.92977035
Pt       2.97129810       2.77906427       4.27134918
Pt       2.39383440       3.27769772       6.81972932
