16
Lattice="2.9173281588410482 -0.0015587899893384797 0.514360459759365 1.070157726923501 7.242382799948619 2.426919947976645 0.006242153844153876 0.07326628628856634 8.469691737626762" Properties=species:S:1:pos:R:3:forces:R:3 structure_index=0 total_energy=-103.17267608642578 stress="0.023525135591626167 0.0008792351000010967 0.0004019827756565064 0.0008790193824097514 0.019087033346295357 -0.003966216463595629 0.0004045630048494786 -0.003961266949772835 0.021837815642356873" pbc="T T T"
Fe       2.25884125       2.66432458       3.27664361      -0.00779896      -0.01024163       0.03942481
Mn       2.43396908       7.34096359      10.75251414      -0.00086596       0.01918566      -0.00206757
Fe       0.40292466       1.17960549       5.26543762      -0.00500705      -0.02082407       0.02617694
H        1.05475470       4.85220873       1.57128798       0.00258247       0.04189169      -0.00657162
O        1.16024291       5.77441402       9.47739472       0.00288606       0.04527959      -0.00723261
O        2.93363051       4.01440783       7.93843184       0.00258877       0.00068025      -0.01309922
H        2.94862008       3.02695013       7.85477530       0.00423997       0.00492272      -0.02535707
Fe       1.48327533       5.26023035       7.63750573       0.00662534      -0.01137905      -0.03331511
O        0.79198105       0.95799632       3.06181340       0.00262065      -0.02189925      -0.01329255
O        2.97734765       1.14647334       7.70801153      -0.00455087       0.03380083       0.02510352
Mn       3.33920608       6.80718903       5.63902632      -0.00173762      -0.00467272       0.01062533
O        2.99340219       6.86620719       7.60021830      -0.00378659      -0.03994638       0.02289075
O        1.84383584       5.61435780       5.58693010       0.00341585       0.00510079      -0.01895073
O        1.92298153       2.39389022       5.17832535      -0.00029132      -0.04840687       0.00162426
O        3.66812383       6.85265826       3.77446565       0.00113866       0.00378386      -0.01466143
O        0.90972647       3.57926869       2.40095051      -0.00205909       0.00272517       0.00870226
