8
Lattice="4.674074649810791 0.0 -2.149600028991699 -2.7736886223739816 4.253273347825031 -0.8451740741729736 0.0 0.0 5.151638031005859" Properties=species:S:1:pos:R:3 pbc="T T T"
Fe      -0.07981564       3.54340490       1.27828306
Fe       4.33686521       0.35238849      -0.45238411
N        0.05342827       4.07010355      -0.45175228
Eu       1.30889458       1.42255242      -0.87662812
N        0.49365793       1.94584510       1.92023429
Eu       2.95117943       2.48436209       1.70007358
N        3.78516701       0.45625108       2.96852521
N       -1.87336476       3.44734154       1.51931016
