18
Lattice="4.626250743865967 0.0 -1.784488558769226 -0.6131834752086723 5.558050109026219 -1.5920050144195557 0.0 0.0 8.384085655212402" Properties=species:S:1:pos:R:3 pbc="T T T"
Mn       3.77711270       0.72177117       2.65286214
F        2.89261261       4.00288283       3.55941443
O        0.89780881       2.12103815      -0.96618252
Mn       1.82328028       1.50579565       5.73786364
Mn       0.91260846       3.69731849       3.05303823
O        3.11364520       1.46115710       4.31965619
Mn       4.11319243       3.06002147       4.67509864
Mn       2.55195059       3.35103318      -0.42823760
O        0.49104745       2.56173003       4.84634011
Mn       0.28498200       1.02436436       0.94275473
O        0.79552343       0.00520920       5.18328579
F        1.93786882       4.38158459       1.12823298
F        3.63133213       5.44027256      -0.66074854
O        4.22376217       2.70082579       0.14796994
F        2.99322975       0.52962189       6.88199126
O        2.88385040       3.09603184       6.10817922
F        2.16752220       1.57230929       1.79903970
F        0.37402351       4.71472798      -1.38175937
