10
Lattice="3.962916851043701 0.0 0.017183613032102585 0.05035444656582681 5.463764857048588 0.02074434794485569 0.0 0.0 5.4597554206848145" Properties=species:S:1:pos:R:3 pbc="T T T"
Sr       3.00663148       0.24850343       2.57965214
Ge       1.02506539       0.24607378       5.29961324
Ge       1.05104415       2.98177098       2.57756228
O        1.06066663       4.08403691       0.95586002
O        1.06411392       4.53933556       3.76107906
Nd       3.03287053       2.97262824       5.32610469
O        3.03426757       2.97832967       2.58540831
O        1.03729328       1.42551476       1.40312200
O        1.04133582       1.88218609       4.20516984
O        3.00791230       0.25241010       5.31100100
