10
Lattice="3.987450129479077 -0.01836939094840157 0.008709919371989115 0.025347013334470796 5.5384647669604234 0.008868164129809737 -0.012010881571486321 -0.012051484937083568 5.537377634302784" Properties=species:S:1:pos:R:3:forces:R:3 structure_index=0 total_energy=-67.2776107788086 stress="-0.061082545667886734 -0.0008502088021486998 -0.0006067174253985286 -0.00085078040137887 -0.06490044295787811 -0.00702272541821003 -0.0006070919916965067 -0.0070224907249212265 -0.06442324072122574" pbc="T T T"
Sr       3.01872607       0.23190052       2.60925532       0.00131440      -0.00225306      -0.00181941
Ge       1.01932854       0.23360877       5.37268264       0.00099769      -0.00735298       0.00454277
Ge       1.03816531       3.01159935       2.61086961      -0.00008217       0.00130092      -0.00244761
O        1.04693914       4.12421956       0.95100228       0.00011191       0.02105094       0.01673828
O        1.04232477       4.57281674       3.81479100       0.00031686      -0.02328554       0.02294281
Nd       3.02609141       2.98719097       5.38866617      -0.00054801      -0.00366826       0.01645705
O        3.03188724       3.00126448       2.60844277       0.00041162       0.00122414       0.00330973
O        1.03379585       1.45288162       1.39970441      -0.00179065       0.03043327      -0.02638450
O        1.02985906       1.90034236       4.26625415      -0.00170300      -0.02030438      -0.02808367
O        3.01315520       0.23153390       5.37825781       0.00097121       0.00285516      -0.00525553
