8
Lattice="3.072880983352661 0.0 0.0078580928966403 0.04208180168438252 4.982767745129792 -1.5243020057678223 0.0 0.0 5.196749210357666" Properties=species:S:1:pos:R:3:forces:R:3 sample_seed=84000 sample_index_within_seed=0 benchmark_method=C0 dft_verified=F structure_index=0 total_energy=-50.851932525634766 stress="1.173250436782837 0.3582979142665863 0.23545722663402557 0.35829949378967285 0.4520520865917206 -0.334028959274292 0.2354574352502823 -0.33402732014656067 1.252236247062683" pbc="T T T"
Fe       0.92349171       1.26403664       3.86121706      -0.00334887       0.09434753      -0.07620346
O        0.92949473       0.01480540       0.30095484      -0.02804921      -0.16583119       0.02604370
Fe       0.94458267       3.76382031       0.49045546      -0.00294631      -0.04212039       0.05098024
Li       2.45978414       1.26786685       1.26088740       0.00020373       0.03241966       0.01839739
Fe       2.48071241       3.76556308       3.09873175      -0.00010852      -0.10184701      -0.03307269
O        2.45010850       0.15003158       2.97811881       0.01487840       0.03171948       0.07189822
O        2.46933530       2.38751097      -0.45366299      -0.01906186      -0.01146787      -0.11209853
O        0.91407537       2.52887280       2.20849414       0.03843262       0.16277936       0.05405514
8
Lattice="4.033473491668701 0.0 0.00027533783577382565 0.0016908241396211396 4.662310770522509 -0.8260810375213623 0.0 0.0 4.941286563873291" Properties=species:S:1:pos:R:3:forces:R:3 sample_seed=84001 sample_index_within_seed=0 benchmark_method=C0 dft_verified=F structure_index=0 total_energy=-63.85962677001953 stress="-0.0051333545707166195 0.026099910959601402 -0.0014435790944844484 0.026100385934114456 0.14313249289989471 -0.06185761094093323 -0.001443468383513391 -0.0618584081530571 0.5794709324836731" pbc="T T T"
Fe       0.73488785       3.15395246      -0.22725452       0.00004702      -0.04224229       0.01408485
Co       0.73366238       0.81313382       1.42182682       0.00159556      -0.04603995      -0.06477046
Fe       2.75233518       4.28950467       3.89446252      -0.00338890       0.04078235      -0.01857343
Fe       2.75157189       4.30480809       1.42161014       0.00322162      -0.03179387       0.02624267
Fe       2.75112466       1.96651246       0.60456428      -0.00056285       0.00345110       0.01656427
Fe       0.73385863       0.81613023       3.88625917       0.00067592       0.01433746      -0.00907827
Co       2.75087779       1.96328207       3.07338581       0.00179088      -0.05316419       0.02054669
Co       0.73507481       3.16168685       2.23909821      -0.00337925       0.11466930       0.01498364
16
Lattice="3.860832452774048 0.0 -0.5447049736976624 -0.07391895659048857 3.8521327002747854 -0.5404843688011169 0.0 0.0 13.943925857543945" Properties=species:S:1:pos:R:3:forces:R:3 sample_seed=84002 sample_index_within_seed=0 benchmark_method=C0 dft_verified=F structure_index=0 total_energy=-136.58456420898438 stress="-2.850757598876953 0.10960134118795395 0.4069640040397644 0.1096021980047226 -2.813432216644287 0.44060659408569336 0.40696489810943604 0.44060465693473816 -0.27814799547195435" pbc="T T T"
Eu       1.69094511       3.10779439       3.45790737      -0.09278643      -0.09123424      -0.51776075
Eu       1.16975633       2.58131678      -0.17179481       0.01400306       0.00505789       0.07662644
O        2.55374210       0.05357589       9.59646722      -0.12371415      -0.11994100      -0.84129155
O        1.50135426       0.95518671       2.15363148      -0.00591493       0.01686397       0.16407877
Fe       0.13902363       1.52446493       6.44044600      -0.05890042      -0.07417966      -0.52963334
Fe       3.41729954       0.93834226       1.79899159      -0.00684219      -0.01515957      -0.39553037
Fe       2.87201255       0.37780719      11.85734711       0.03985160       0.07219099       0.41441333
O        2.81046135       2.28240849      11.43015412      -0.05347149      -0.08308373      -0.44795114
Ti       2.22902710       3.65166343       7.28135450       0.11936292       0.08384857       0.88538909
Eu       0.65861186       2.05075036      10.11227228       0.11773563       0.13798615       0.87456095
O        3.39658984       2.87913168       1.61554759       0.02534506       0.00821694       0.15979560
O        0.91817935       0.35425408      11.97146128      -0.05397917      -0.05971333      -0.43298030
O        0.24363100       3.59123920       7.16981839      -0.00732905      -0.02681684      -0.23467931
O        2.21013951       1.65987850       7.12763653      -0.06038059       0.01141615      -0.19105804
O        3.13943320       0.65557216      -0.17832546       0.03984540       0.03189211       0.23975159
O        3.73090277       1.25690496       3.99642124       0.10717526       0.10265568       0.77626944
10
Lattice="3.984110116958618 0.0 -0.03215118497610092 -1.9377785584077287 3.337199503875057 -0.7618409395217896 0.0 0.0 9.939664840698242" Properties=species:S:1:pos:R:3:forces:R:3 sample_seed=84003 sample_index_within_seed=0 benchmark_method=C0 dft_verified=F structure_index=0 total_energy=-79.17314910888672 stress="-1.2772142887115479 0.007427730597555637 0.10516995191574097 0.007429176475852728 -0.8716574311256409 0.3783020079135895 0.105166956782341 0.3782969117164612 -0.28298982977867126" pbc="T T T"
O       -1.07961496       2.99486576       5.71314622       0.53164339       0.36387819       0.03488770
Eu       1.33373005       3.10154139       0.07638257       0.04353771      -0.08230652      -0.53041786
H        1.25675588       0.38297576       8.56680507       0.02024713       0.05378863       0.05689496
Eu      -0.63878259       2.66459607       3.18566787       0.03076789       0.08410828       0.21233618
N        1.81940160       2.41002515       5.85803053      -0.74225008      -0.48953706       0.15311579
O        1.30558819       0.64786915       9.51262808      -0.03983112      -0.03378673       0.03659593
O        3.30771723       0.34100262       3.21179408      -0.09586937      -0.17759320      -0.36367831
O       -0.66476409       2.14223291       0.98393718       0.03228757       0.10572256       0.40433261
O        1.28521960       1.84087019       4.79297925       0.13626778       0.14313698       0.11907101
O        1.26264056       2.34534793       6.96025579       0.08319911       0.03258851      -0.12313753
7
Lattice="5.160851001739502 0.0 -2.5787193775177 -1.299344037909379 4.994567472419041 -2.5817551612854004 0.0 0.0 6.447319984436035" Properties=species:S:1:pos:R:3:forces:R:3 sample_seed=84004 sample_index_within_seed=0 benchmark_method=C0 dft_verified=F structure_index=0 total_energy=-42.48548889160156 stress="0.5740010142326355 -0.17347928881645203 -0.2006300836801529 -0.17347969114780426 0.46449655294418335 -0.24772557616233826 -0.20062978565692902 -0.2477252334356308 0.32641634345054626" pbc="T T T"
Mn       0.33338819       1.11301120       1.86850529      -0.01433864       0.01651861      -0.01079755
Ge       0.64535774       4.86131632       2.50696609       0.02149925      -0.02272153       0.01858822
S        3.31215914       1.63054706      -1.64237739       0.01219827       0.01083255       0.04953901
S        0.20143344       4.29018207      -1.80779857       0.04975311       0.01820076       0.01014078
Mn       2.26352557       3.61256371      -0.72027402      -0.03348147      -0.02558558       0.02371615
S       -0.02673425       0.43465474       4.16755150       0.00524771      -0.00083569      -0.04508208
S        1.69852224       3.09669705       1.58676577      -0.04087830       0.00359076      -0.04610454
4
Lattice="4.012381553649902 0.0 0.0008421340608038008 -0.0016816219271082134 4.013648634536917 0.0028648688457906246 0.0 0.0 9.896760940551758" Properties=species:S:1:pos:R:3:forces:R:3 sample_seed=84005 sample_index_within_seed=0 benchmark_method=C0 dft_verified=F structure_index=0 total_energy=-23.604381561279297 stress="0.04045125097036362 -0.00299203023314476 0.0014173071831464767 -0.0029920206870883703 0.04524218291044235 0.005792573560029268 0.0014174003154039383 0.005792641546577215 -0.04754479229450226" pbc="T T T"
Sr       3.80952175       3.53794397       6.22534110       0.00085961       0.00008099      -0.00071016
Eu       1.80576047       1.53090064       3.10007113       0.00009956      -0.00015985       0.01738434
Eu       1.80655580       1.53171750       9.34791478      -0.00036327      -0.00011671      -0.01571670
Hg       3.81193506       3.53799326       1.27915292      -0.00059591       0.00019557      -0.00095752
10
Lattice="3.7468361854553223 0.0 1.183561086654663 1.529771385582819 4.269095390090307 1.70759916305542 0.0 0.0 6.537974834442139" Properties=species:S:1:pos:R:3:forces:R:3 sample_seed=84006 sample_index_within_seed=0 benchmark_method=C0 dft_verified=F structure_index=0 total_energy=-85.50241088867188 stress="-0.09371405839920044 -0.3999415636062622 0.449158251285553 -0.399942010641098 1.643317461013794 1.4818707704544067 0.44916045665740967 1.481871485710144 -1.3798757791519165" pbc="T T T"
Mn       2.73410864       1.97057158       2.25385213      -0.04209997      -0.01512437       0.04948789
Si       2.01119789       2.71926934       4.55066642      -0.02955152       0.25755641       0.04568786
Mn       1.25437806       0.49615826       6.93355006      -0.01225440      -0.03641525       0.08931178
Mn       3.54592888       1.83482910       6.20514290       0.02861553       0.06388758      -0.06445464
Mn       2.04461064       0.29950291       4.41975365       0.06464824      -0.18658382      -0.20900092
Mn       4.23222317       3.50562215       4.03760536      -0.05636623       0.22534150       0.19283818
C        3.15860520       3.27197050       7.44486044      -0.07291518       0.05171576       0.21399394
Mn       1.27667922       3.31335630       6.87755142       0.03217791       0.03110811      -0.06881614
C        3.12074440       0.53791608       7.55157723       0.04554655      -0.10348900      -0.20033623
Si       0.51853590       1.09461102       2.72528598       0.04219922      -0.28799683      -0.04871193
10
Lattice="3.779381036758423 0.0 0.5503514409065247 1.8523845642306827 3.300701981724786 0.5504316091537476 0.0 0.0 13.113118171691895" Properties=species:S:1:pos:R:3:forces:R:3 sample_seed=84007 sample_index_within_seed=0 benchmark_method=C0 dft_verified=F structure_index=0 total_energy=-107.959716796875 stress="0.576897144317627 0.08948343992233276 0.1721208542585373 0.08948566764593124 0.704727053642273 0.13291695713996887 0.17212508618831635 0.13291604816913605 -0.8982077240943909" pbc="T T T"
Eu       1.85406554       0.98416598       6.44908381       0.01596483       0.03256188      -0.17319685
Gd       0.46416008       0.17063985       2.75081716       0.03268914       0.03004269      -0.17390522
O        1.49571629       0.77547024       8.90756143      -0.01348206       0.01286620       0.04301031
O        4.84554897       2.74035596      12.34926815       0.04238578       0.01958915      -0.24168554
O        5.54185832       3.14625366       7.63843859       0.01324484      -0.01425674      -0.02016348
O        4.30719040       2.42388396       2.87735849       0.02064869      -0.00759726      -0.07508969
O        2.17382125       1.17216291       4.27307558      -0.04847259      -0.02613886       0.30904633
O        0.81380576       0.37676457       0.41319980      -0.01151110      -0.00611584       0.04382914
Eu       5.17964355       2.93526348      10.12494776      -0.02561906      -0.03496411       0.19386868
Gd       2.80705438       1.54394677      13.12814646      -0.02584831      -0.00598726       0.09428597
