8
Lattice="3.0595861656726897 -0.010989226559819515 0.0024840019659322496 0.026695652081634692 4.989427914767153 -1.504537594609559 -0.009070497104918005 0.018539112765239264 5.1897189120376925" Properties=species:S:1:pos:R:3:forces:R:3 sample_seed=84000 sample_index_within_seed=0 benchmark_method=C0 dft_verified=F structure_index=0 total_energy=-50.86202621459961 stress="0.03574468195438385 0.0442238450050354 0.022751837968826294 0.04422304779291153 -0.013296963647007942 -0.011284242384135723 0.022751349955797195 -0.011281113140285015 0.012523115612566471" pbc="T T T"
Fe       0.90773482       1.28463377       3.85183572      -0.00042020      -0.01984217       0.02131556
O        0.91812697      -0.01573330       0.30682756      -0.02117504      -0.00786200       0.00289888
Fe       0.92568389       3.76851113       0.50666040      -0.00041415       0.00827481      -0.01151438
Li       2.44243406       1.26932893       1.26032055      -0.00041420      -0.00720067      -0.00803579
Fe       2.45037711       3.77134166       3.10133091       0.00222154       0.02912294       0.01293982
O        2.43388862       0.16197518       2.97920030       0.00162674       0.00378788      -0.01444227
O        2.45007680       2.37623010      -0.46071966      -0.00083959      -0.00985199       0.02493075
O        0.90632385       2.56382105       2.21147779       0.01941488       0.00357147      -0.02809270
8
Lattice="4.037969106288503 -0.000757592592456159 8.636487991594211e-05 0.0008553242819777493 4.660946092969174 -0.8204781250956359 -0.00023073027058382998 0.003927221429600367 4.929936516097356" Properties=species:S:1:pos:R:3:forces:R:3 sample_seed=84001 sample_index_within_seed=0 benchmark_method=C0 dft_verified=F structure_index=0 total_energy=-63.861419677734375 stress="0.0634593591094017 -0.0007533046882599592 -0.0012287409044802189 -0.0007529943832196295 0.05079619586467743 0.007013882976025343 -0.001228624489158392 0.007013664580881596 0.060922298580408096" pbc="T T T"
Fe       0.73511389       3.15022464      -0.22338803      -0.00046380      -0.01737417       0.00610282
Co       0.73437895       0.81117444       1.41475366       0.00095028      -0.01445482      -0.03400264
Fe       2.75418610       4.29381680       3.88790760      -0.00142416       0.00766487       0.00070225
Fe       2.75396292       4.30254940       1.42317373       0.00115386      -0.01356293       0.00624288
Fe       2.75375864       1.96637236       0.60610602      -0.00014396      -0.00257669       0.01925322
Fe       0.73439356       0.82038112       3.87688461       0.00034362       0.01589777      -0.01846094
Co       2.75356108       1.96144684       3.06898446       0.00069119      -0.01948693       0.00649930
Co       0.73497156       3.17028382       2.23767473      -0.00110703       0.04389286       0.01366314
16
Lattice="3.865118289073537 -0.0012193838943560503 -0.545661044381915 -0.07556424719012438 3.863905441677049 -0.5438896975022953 0.0692396413267303 0.061294326059609314 14.459166302446102" Properties=species:S:1:pos:R:3:forces:R:3 sample_seed=84002 sample_index_within_seed=0 benchmark_method=C0 dft_verified=F structure_index=0 total_energy=-136.88963317871094 stress="-0.02525409311056137 -4.9707101425156e-05 -0.00032006550463847816 -5.018052252125926e-05 -0.025428900495171547 -0.0003372549545019865 -0.0003228977438993752 -0.0003341052506584674 -0.027344955131411552" pbc="T T T"
Eu       1.70308120       3.12730303       3.56821425       0.00045568      -0.00044139       0.00530887
Eu       1.20328968       2.61941792       0.04409437       0.00635082       0.00572046       0.03847868
O        2.58429860       0.07453279       9.81321641      -0.00499937      -0.00442392      -0.03392577
O        1.51529495       0.96571749       2.24466509       0.00278236       0.00161566       0.01802161
Fe       0.16367238       1.55012901       6.62430645      -0.00358744      -0.00296508      -0.02333598
Fe       3.43855094       0.95522011       1.90687355       0.00308583       0.00258614       0.02067664
Fe       2.95792783       0.45596006      12.47073762       0.00451504       0.00474568       0.03086013
O        2.86987517       2.33654697      11.84116423       0.00020348       0.00027191      -0.00046476
Ti       2.26495082       3.69077125       7.54217840      -0.00388113      -0.00355321      -0.02654195
Eu       0.73761907       2.13413484      10.70123179       0.00327502       0.00382314       0.02171355
O        3.41036576       2.89656301       1.70043150       0.00209642       0.00208440       0.01715365
O        0.97523930       0.40518865      12.38748139      -0.00022459      -0.00003713      -0.00256050
O        0.25659149       3.61463380       7.27758638      -0.00554571      -0.00478795      -0.03710818
O        2.22672611       1.68151511       7.27493039      -0.00543901      -0.00447893      -0.03417832
O        3.15613760       0.66652318      -0.10197947       0.00261525       0.00239393       0.01980561
O        3.76016365       1.27928888       4.18391301      -0.00170273      -0.00255331      -0.01390320
10
Lattice="3.996099979289291 -0.018548436537648216 -0.02796629803340667 -1.9600618566713317 3.3607658546471173 -0.7760663715766557 0.010211430350835032 -0.042922361069055816 9.911270533057822" Properties=species:S:1:pos:R:3:forces:R:3 sample_seed=84003 sample_index_within_seed=0 benchmark_method=C0 dft_verified=F structure_index=0 total_energy=-79.22577667236328 stress="-0.0049776616506278515 -0.002686829539015889 0.0019026549998670816 -0.0026891788002103567 -0.002055366523563862 0.00044764328049495816 0.0018984286580234766 0.00044783230987377465 -0.003138885833323002" pbc="T T T"
O       -1.08579330       3.00560498       5.73535074      -0.00428462       0.00711346       0.02664343
Eu       1.33428137       3.09556266       0.00482268      -0.00086287      -0.01253453      -0.04730502
H        1.27357863       0.35017071       8.53421281       0.00516215      -0.00141148      -0.01949263
Eu      -0.65691922       2.66390317       3.16642808       0.00300721       0.00322385      -0.00157967
N        1.81416934       2.38490622       5.85897265      -0.00246584       0.00363749       0.01469003
O        1.31021789       0.59192557       9.48557483       0.00682511       0.00025599      -0.01456890
O        3.30955878       0.28809604       3.14256758       0.00033749       0.00035526       0.00518540
O       -0.67164632       2.15448745       0.99169869      -0.00188541      -0.00218073       0.00603048
O        1.30442730       1.83818829       4.78000368       0.00081876       0.00376868       0.01115763
O        1.24542599       2.30765099       6.95036062      -0.00665241      -0.00222796       0.01924002
7
Lattice="5.081753899127496 0.0029727071728096483 -2.539584586141588 -1.2769559466461593 4.923376148348353 -2.543380951799295 0.07244543959677584 0.09275098789318839 6.494461832458879" Properties=species:S:1:pos:R:3:forces:R:3 sample_seed=84004 sample_index_within_seed=0 benchmark_method=C0 dft_verified=F structure_index=0 total_energy=-42.49705505371094 stress="-0.0036538683343678713 -0.008096929639577866 -0.011208010837435722 -0.008096219971776009 -0.0058716763742268085 -0.015400703996419907 -0.011208177544176579 -0.015401427634060383 -0.02254459448158741" pbc="T T T"
Mn       0.35884740       1.13897088       1.90080401      -0.00234385       0.00524394      -0.00482405
Ge       0.70680168       4.87844172       2.60337830       0.00079462      -0.00166607       0.00224895
S        3.27792038       1.62933632      -1.59413474       0.02259776       0.03046286      -0.02814050
S        0.21280242       4.24224102      -1.75137439      -0.01778047      -0.03195503       0.02995962
Mn       2.25956979       3.60074267      -0.64607003      -0.00322880      -0.00388355       0.00991324
S        0.01835155       0.49613953       4.20078052      -0.03664887       0.03435346      -0.00253052
S        1.72629642       3.11292427       1.65812047       0.03660962      -0.03255570      -0.00662671
4
Lattice="4.012381553649902 0.0 0.0008421340608038008 -0.0016816219271082134 4.013648634536917 0.0028648688457906246 0.0 0.0 9.896760940551758" Properties=species:S:1:pos:R:3:forces:R:3 sample_seed=84005 sample_index_within_seed=0 benchmark_method=C0 dft_verified=F structure_index=0 total_energy=-23.604381561279297 stress="0.04045125097036362 -0.00299203023314476 0.0014173071831464767 -0.0029920206870883703 0.04524218291044235 0.005792573560029268 0.0014174003154039383 0.005792641546577215 -0.04754479229450226" pbc="T T T"
Sr       3.80952175       3.53794397       6.22534110       0.00085961       0.00008099      -0.00071016
Eu       1.80576047       1.53090064       3.10007113       0.00009956      -0.00015985       0.01738434
Eu       1.80655580       1.53171750       9.34791478      -0.00036327      -0.00011671      -0.01571670
Hg       3.81193506       3.53799326       1.27915292      -0.00059591       0.00019557      -0.00095752
10
Lattice="3.7203767392509115 -0.003679590369531406 1.1736872827988842 1.531679149834586 4.174605335281047 1.6398426220519697 -0.04847994392104083 -0.12596650859051903 6.6369065485236325" Properties=species:S:1:pos:R:3:forces:R:3 sample_seed=84006 sample_index_within_seed=0 benchmark_method=C0 dft_verified=F structure_index=0 total_energy=-85.56977081298828 stress="-0.00020386965479701757 0.009538554586470127 -0.01182335615158081 0.009538592770695686 -0.03399081155657768 -0.03274770453572273 -0.011823534034192562 -0.03274917975068092 0.03704116493463516" pbc="T T T"
Mn       2.70770134       1.93821655       2.24310951      -0.00058356       0.01979987       0.00223106
Si       1.97470555       2.63365980       4.57016550      -0.00164754      -0.00226844       0.00367408
Mn       1.19494020       0.37330990       7.03489747       0.00274999       0.01061124      -0.00952432
Mn       3.49748298       1.67758463       6.22313871       0.00084437      -0.01872112      -0.00258416
Mn       2.00414805       0.17113505       4.46702231       0.00000335      -0.01625599       0.00297511
Mn       4.20097783       3.44494519       3.99930820       0.00025763       0.01573016      -0.00332430
C        3.09905825       3.08493444       7.48986364       0.00096215      -0.00560279      -0.00374386
Mn       1.24151900       3.12008294       6.89460786      -0.00301448      -0.01003647       0.00994918
C        3.05782845       0.40492613       7.61328377      -0.00151357       0.00520995       0.00362716
Si       0.51006777       0.98626707       2.72232020       0.00194164       0.00153356      -0.00328004
10
Lattice="3.756386823739816 -0.0039025267235988804 0.5486264093731846 1.8377125461011865 3.2760511377470425 0.5486626163368358 -0.0334980467214722 -0.019735872679322808 13.302054426732353" Properties=species:S:1:pos:R:3:forces:R:3 sample_seed=84007 sample_index_within_seed=0 benchmark_method=C0 dft_verified=F structure_index=0 total_energy=-107.98646545410156 stress="-0.009465904906392097 -0.00034067692467942834 -0.0014319916954264045 -0.00034178062924183905 -0.009938022121787071 -0.0004657344543375075 -0.0014313890133053064 -0.00046515261055901647 -0.0018265485996380448" pbc="T T T"
Eu       1.82917849       0.96860586       6.52116132      -0.00570927      -0.00229442       0.04277439
Gd       0.45808138       0.16750403       2.77201175       0.00442964       0.00261565      -0.00809582
O        1.46361582       0.75564823       9.03448279      -0.00515854      -0.00351122       0.01718995
O        4.78911071       2.70195658      12.48237572       0.00384447       0.00096779      -0.01242542
O        5.48685145       3.10812146       7.73582667      -0.00410245      -0.00154469       0.03724733
O        4.27525284       2.40029160       2.89503389       0.00383760       0.00197902      -0.00839764
O        2.14306217       1.15256784       4.36603230      -0.00576128      -0.00258852       0.02265781
O        0.80714151       0.37223666       0.41675615       0.00525782       0.00244180      -0.04085054
Eu       5.11769173       2.89311345      10.27221985       0.00234486       0.00061296      -0.02510787
Gd       2.75519652       1.51117188      13.30909148       0.00101690       0.00132193      -0.02499227
