10
Lattice="3.650846337857175 0.02727925425981817 0.893252808492196 -0.31359786950607216 4.8069716594195775 -0.7465141671944986 -0.033694605947707054 0.035106767733112006 6.1372838328795245" Properties=species:S:1:pos:R:3:forces:R:3 structure_index=0 total_energy=-75.49313354492188 stress="0.045666344463825226 -0.00329738762229681 0.00272781727835536 -0.0032977217342704535 0.02659836784005165 -0.02443128637969494 0.002727131126448512 -0.024433311074972153 0.022478731349110603" pbc="T T T"
Fe       1.83198082       1.27379243       2.80855298      -0.01360407      -0.01311357       0.01288512
O        2.87300653       2.95911538       3.69844508       0.03761476      -0.02598599       0.01608849
C        1.39312295       0.51624603       5.87314406      -0.03013915       0.02781476       0.00015479
Mn       2.35773541       3.02746931       5.88370097       0.03755616      -0.02164849      -0.02092630
O        1.11057066       3.08167867       1.64165962       0.02996647      -0.00072730      -0.01286992
C        0.02840105       3.64346793       2.07934217       0.01772629      -0.01911645       0.00357524
O        2.22987575       0.88446045       0.68879831      -0.04463708       0.02356055       0.00185242
O        1.15917391       1.35263536       4.91566810      -0.04209406       0.02437246      -0.00851113
O        0.07479366       0.08089455       2.54772427      -0.00447024      -0.03458124       0.02328238
O        0.61409321       4.12135691       5.14501853       0.01208053       0.03942496      -0.01553188
