20
Lattice="5.785731315612793 0.0 0.0016571274027228355 0.0021616324680622037 6.0470076512062265 0.0023807347752153873 0.0 0.0 8.561666488647461" Properties=species:S:1:pos:R:3 pbc="T T T"
O        5.50266764       2.00762449       3.86241971
Eu       3.57792236       1.83015465       8.10942817
Y        3.48146174       4.54159426       5.99592004
O        4.55098791       0.37519110       1.04744144
Gd       3.48031327       4.54323385       1.71025124
O        1.65110076       5.67374409       2.38907265
Gd       3.37929912       1.21258703       3.87316748
Y        0.58415615       1.51821045       5.99270504
O        2.41289709       2.65023467       2.39098917
Eu       0.48794268       4.85411640       8.11630778
O        1.41232145       1.06074077       8.11982079
Gd       0.68707549       4.23481808       3.87230938
O        1.66277470       5.68011576       5.30979956
O        5.29566503       3.38976028       6.65651161
Gd       0.58452289       1.51997818       1.70758607
O        5.30103137       3.39948431       1.05413012
O        4.34921334       5.03065236       3.86550444
O        4.55548450       0.36558477       6.65389372
O        2.40756815       2.65399125       5.31505988
O        2.65094040       4.08844612       8.12237820
