10
Lattice="7.073472023010254 0.0 4.047013759613037 2.3316082434435828 6.673087247740725 4.084653377532959 0.0 0.0 8.173172950744629" Properties=species:S:1:pos:R:3 pbc="T T T"
Br       3.19345863       0.07658289       5.87181073
K        3.09432046       0.02399449       9.93301836
Hg       3.08734651       5.02645963       9.95371645
Br       6.61214548       0.07447556       3.87210379
K        7.80077228       3.36650193       9.91462828
Br       7.74096037       3.30563948       5.85526528
Br       6.62056458       0.07621417       7.82609131
Br       4.32023321       3.30265737       3.89037868
Br       4.32618221       3.30793846       7.84435700
Sb       5.46222502       1.68543181       5.84686846
