9
Lattice="4.264269828796387 0.0 -0.0013762644957751036 -0.00768697706804984 6.56841209744673 -3.792083501815796 0.0 0.0 7.582387447357178" Properties=species:S:1:pos:R:3 pbc="T T T"
Eu       0.95071873       4.77162901       1.98674065
Mg       3.08058525       6.33969203      -3.35238607
Cu       0.95084378       4.77315041      -2.44953198
Eu       0.95445089       2.04672269      -0.87645856
Mg       3.08328807       4.77120031      -0.63859603
Mg       3.08461888       3.20228440       4.22863673
Cu       3.08832934       0.39292202       5.13622127
Eu       0.95420822       0.92893053       2.91500928
Cu       3.08497872       2.57945117       1.34146586
