8
Lattice="4.214351177215576 0.0 0.00018871435895562172 -2.1060122413201734 6.67639417314195 0.015962086617946625 0.0 0.0 10.070311546325684" Properties=species:S:1:pos:R:3 pbc="T T T"
Eu       2.19487600       0.33562280       0.88477856
Eu       0.08929938       3.22612687       9.70296669
Eu       2.19451882       4.16551770       2.77874959
Au       0.08809733       1.76928495       2.77079191
Eu       2.19387742       0.33579663       4.65432744
Au       2.19471967       1.78262245       7.81198043
Eu       0.08615419       3.22008469       5.92864641
Eu       2.19376266       6.06950196       7.82243117
