14
Lattice="5.25242280960083 0.0 -1.5794166326522827 -0.5462305569566586 5.241887228411939 -1.4960464239120483 0.0 0.0 9.95732593536377" Properties=species:S:1:pos:R:3 pbc="T T T"
O        3.23073926       3.36672549       1.61206126
Nb       1.73192891       3.09145794      -0.02490655
N        2.91579073       3.68590004       2.83095553
O        0.28656510       2.28823913       8.47030297
O        2.96244106       2.32949662      -1.06882337
O        2.66866807       4.85760438       3.11255220
O        0.68351263       2.80151567       6.40769853
Cs       0.21341952       0.87532594       3.81208615
O        1.59672513       4.87087687      -0.47204186
O        2.92966996       2.79939294       3.64301620
O        0.91718355       0.77857989       7.01968830
N        0.65619081       1.95854657       7.25245867
O        0.58992979       2.83069858       1.30726941
Cs       3.34280412       4.75134919       6.27152748
