14
Lattice="5.193282363520364 0.015498138792901963 -1.6436132044669611 -0.5146566047441886 5.296410292911334 -1.5237434346945724 -0.12440644946698945 -0.06814374346206971 9.948329522982002" Properties=species:S:1:pos:R:3:forces:R:3 structure_index=0 total_energy=-89.3760986328125 stress="0.008939458057284355 0.0014962006825953722 0.0016044314252212644 0.001494476106017828 -0.00511857820674777 0.0010512496810406446 0.0016038435278460383 0.0010531278094276786 0.00048226231592707336" pbc="T T T"
O        3.19922654       3.40104790       1.53713917       0.00909102       0.01702310       0.02131259
Nb       1.71591335       3.19705602      -0.07181698       0.00411387      -0.00599301      -0.00203220
N        2.84587404       3.70622366       2.78364485      -0.00544167       0.00816368       0.01363806
O        0.16984143       2.25008758       8.44086784      -0.00512707      -0.00295468      -0.02101290
O        3.04309180       2.29679533      -1.06782578       0.03224683       0.00281227       0.03382778
O        2.53310998       4.88617813       3.03436345      -0.04156502      -0.01940602       0.00812165
O        0.65547272       2.81808736       6.36019603       0.04455313      -0.01317082       0.00205910
Cs       0.13110171       0.85565257       3.61369898      -0.01674568       0.00675619      -0.04140744
O        1.56745818       4.93212113      -0.54690849      -0.00130276      -0.03545129       0.00184309
O        2.86905210       2.79489934       3.63038067       0.02068134       0.02554570       0.01016510
O        0.74611606       0.70742265       6.97383413      -0.04020325       0.01267824      -0.02195357
N        0.54589333       1.91223966       7.20958881       0.00090054      -0.00047627      -0.01477116
O        0.49576854       2.72637351       1.28886088      -0.01604462      -0.02703828      -0.02531242
Cs       3.24634363       4.83286293       6.35102711       0.01484250       0.03151187       0.03552179
