10
Lattice="3.746471405029297 0.0 0.9112582206726074 -0.35448900340770784 4.767019655707793 -0.7735866904258728 0.0 0.0 6.1196722984313965" Properties=species:S:1:pos:R:3 pbc="T T T"
Fe       1.89345185       1.24058355       2.81258961
O        2.92096653       2.91573056       3.67376772
C        1.46781023       0.44325014       5.87390755
Mn       2.42754156       2.99646286       5.87082010
O        1.09586598       3.04754240       1.64720739
C       -0.00431049       3.61479412       2.03295381
O        2.28974407       0.82781458       0.70480603
O        1.29446348       1.25998024       4.89252663
O        0.09718949       0.08642994       2.49938591
O        0.60378577       4.02457305       5.13316104
