11
Lattice="7.384536555043812 -0.4740364645158701 1.520217307494841 -3.9774993427186125 7.256675018582307 -2.815692198613092 0.4085792515725505 -0.4527143266766123 8.463856965957133" Properties=species:S:1:pos:R:3:forces:R:3 structure_index=0 total_energy=-28.38414192199707 stress="-0.017493588849902153 -0.0012067040661349893 0.004208399914205074 -0.0012066103518009186 -0.008328988216817379 -0.0007267584442161024 0.004207935184240341 -0.0007266550092026591 -0.005100863520056009" pbc="T T T"
Se       0.67282381       0.46900134       8.45947116      -0.00883347      -0.02456318       0.00888735
Rb      -0.17063392       6.95289897      -1.29964425       0.01091530       0.00419233      -0.02758586
Se       3.98026568       2.62365286       3.42906751      -0.02409816      -0.01260875      -0.00240450
Se       3.40780124       5.43041058       5.74182613       0.02419004      -0.02837083      -0.01365331
Hg       5.29080089       0.88798033       5.37805189      -0.03066038       0.02561861      -0.00957385
Hg      -1.68134182       5.55612412       3.08216203       0.03600296       0.01769464       0.00429965
Hg       1.64277845       2.85967322       4.27770799      -0.01700208      -0.01504682       0.01421461
Se       0.58639083       5.74695475       1.92873277       0.01927790       0.01298985      -0.01323950
Se      -0.71573787       3.21952082       5.08687759      -0.00388128       0.00661334       0.00999174
Se       2.73766330       1.13637841       7.53349303      -0.01854680       0.01414950       0.01143253
Rb       3.41084123       4.41328341       0.46244430       0.01263586      -0.00066862       0.01763108
