20
Lattice="4.214843273162842 0.0 -1.4791382551193237 -0.39805387124018765 5.92042295933291 -3.4040515422821045 0.0 0.0 6.836212158203125" Properties=species:S:1:pos:R:3 pbc="T T T"
Fe       1.75565434       1.33519410       2.19871032
Fe       1.55287963       4.68793702      -0.71322570
Fe       3.61008049       5.91176601      -1.69943212
Be       3.74517537       3.47612415      -1.20710246
Fe       3.88219781       1.84551758       3.72314575
Fe       1.85196042       0.50911028       4.66484033
Fe       1.50530553       5.58346215      -3.14252584
Fe       3.90673597       0.99748296      -0.72384532
Fe       3.59196128       5.13273849       0.73774517
Fe       1.70908715       2.29008027      -0.22854429
H        0.69862321       1.58560491       3.67974568
Fe       3.79182471       2.65683365       1.17425488
H        0.54589568       4.09759966       3.21244945
Fe       1.55268557       3.90645303       1.67883963
Fe       3.70370546       4.33746804      -3.59044590
H        2.73937158       2.84660660       2.68670453
H        0.76759214       0.73631186      -0.70414327
Fe       1.74108987       3.07283004       4.22028652
H        2.91347733       0.30914484       3.17058598
H        2.84821410       1.15234525       0.75627775
