20
Lattice="5.336928844451904 0.0 1.5576820373535156 2.3836748618411714 4.792694726503843 1.5413486957550049 0.0 0.0 9.605462074279785" Properties=species:S:1:pos:R:3 pbc="T T T"
Eu       6.12438218       2.73892431       6.87461102
Eu       4.09436848       1.47613633       4.04759710
Fe       1.69847990       3.29689735       2.28057582
W        5.11722170       2.10640970      10.24919635
Eu       2.74844308       3.95041253       8.42736855
O        5.08251071       0.65893725       6.39249509
Eu       2.15431634       0.27083127       0.88944934
Fe       3.63271354       4.50680940       5.43798281
O        1.24781641       1.20309935       7.80326660
Mn       3.19227448       0.91886815       7.06243965
O        2.45526355       4.27784377       3.81443348
O        3.61947758       3.01426252      11.14344884
O        5.16978030       3.56507261       4.48026287
O        3.00422995       2.74015272       6.12678474
O        3.97683031       1.88173797       8.70892805
O        6.25411060       2.34903285      11.81410710
O        1.87825145       1.52136179       3.18341674
O        4.80812331       4.73087350       7.03872041
O        4.53264456       0.34689840      10.90211854
O        5.71177970       3.82759273       9.60232369
