9
Lattice="4.1710763538546205 0.021234715652594723 -0.0562997659188721 -0.023702127640459442 3.553674532948717 0.9073476822076667 -0.1372743973298954 -0.01829355155483602 8.125255467146966" Properties=species:S:1:pos:R:3:forces:R:3 structure_index=0 total_energy=-59.49988555908203 stress="-0.0077138859778642654 0.0014205463230609894 -0.0018712026067078114 0.001420075655914843 -0.005965937860310078 0.00021713675232604146 -0.0018704248359426856 0.00021725687838625163 -0.008233479224145412" pbc="T T T"
Cu       4.03361388       1.38769098       6.16705352       0.00360060      -0.01734861       0.00355697
Cu       1.46776669       1.15181479       8.11657322       0.01455627       0.00861663      -0.00113595
Tm       1.61774494       0.16836187       3.50339555      -0.00136137       0.00552971      -0.00153628
O        3.47456065       0.97427991       7.93151612       0.02165055       0.00844195       0.00873393
O        3.64431502       0.27543003       2.51804928       0.00444935       0.00277342      -0.00483325
Tm       3.66010530       2.45231345       1.73739342       0.01469088      -0.00380522       0.00272128
O        1.06680702       1.69595671       4.86001430      -0.02584261       0.00847660      -0.01620105
F        3.09606329       3.29301383       6.16463899      -0.04517266      -0.00921860       0.00630005
O        1.57576710       2.01667048       1.92372772       0.01342882      -0.00346571       0.00239411
