18
Lattice="4.626250743865967 0.0 -1.784488558769226 -0.6131834752086723 5.558050109026219 -1.5920050144195557 0.0 0.0 8.384085655212402" Properties=species:S:1:pos:R:3 pbc="T T T"
Mn       3.78154823       0.71645754       2.65168562
F        2.89161177       4.00516541       3.55570896
O        0.90278059       2.12409081      -0.95870961
Mn       1.82256957       1.50791119       5.73777469
Mn       0.91130584       3.69434432       3.05273718
O        3.11116263       1.46197661       4.31716955
Mn       4.10715881       3.06144172       4.68244630
Mn       2.55152840       3.34720239      -0.42678070
O        0.49033934       2.55949103       4.84612768
Mn       0.28128790       1.02785698       0.94852076
O        0.79571014       0.00774433       5.18482000
F        1.93851394       4.37944162       1.12574355
F        3.63563146       5.43850868      -0.66334170
O        4.21893606       2.70000135       0.14278752
F        2.99445455       0.52353701       6.88457533
O        2.88812346       3.09196406       6.10136448
F        2.16695080       1.58088264       1.79760942
F        0.37573944       4.71967789      -1.38144004
