11
Lattice="4.027248000650311 -0.003123372639371781 -1.2230374683023768 0.09411910274187779 4.632015268707114 0.2980818001196218 0.0053131857860880885 0.045440191888727076 7.259120907896053" Properties=species:S:1:pos:R:3:forces:R:3 structure_index=0 total_energy=-82.12261962890625 stress="0.02913086488842964 -0.0013889893889427185 0.001321284449659288 -0.0013889381662011147 0.04628525301814079 -0.004926404450088739 0.0013207420706748962 -0.004926749970763922 0.03212163969874382" pbc="T T T"
Ge       0.94591605       2.26963942       2.10351326       0.00905654       0.03650193       0.01569220
Fe       1.39482295       4.46639807       3.57500515       0.00400965      -0.00720230       0.00860992
Fe       0.24587571       2.78726130       7.03897570       0.00004914      -0.03526244       0.00190613
Fe       1.71122901       1.93308755       4.62309034      -0.00305475      -0.00267574      -0.00536440
Fe       2.85973655       3.60849202       1.15872264      -0.00007273       0.04760967       0.00832874
Ge       2.15965580       4.12698977       6.09505267      -0.00615468      -0.02938739      -0.01766015
Fe       3.88052783       0.71103592       4.52893609      -0.00207045       0.02089610      -0.01489232
Ge       3.56689226       3.19788779       3.48806182      -0.00286434      -0.00080698      -0.00599557
Fe       2.43841376       1.55892927      -0.22089437      -0.00004888      -0.02971847      -0.00821327
Fe       0.56749327       0.16060241       0.86251868       0.00088603       0.02269707       0.00249806
Fe       3.15868054       1.05174567       2.14845194       0.00026457      -0.02265130       0.01509065
