9
Lattice="4.842357635498047 0.0 -0.0008839875808916986 5.156235920715379e-05 4.848612785065186 -0.0013457953464239836 0.0 0.0 13.296868324279785" Properties=species:S:1:pos:R:3 pbc="T T T"
K        3.32934430       4.55867404       0.25621231
Eu       0.90701359       4.56199742       3.81525692
O        3.32814421       4.56139427       4.27213384
Sb       0.90717657       2.13676282       6.22984515
Eu       3.32899224       4.56266299       6.73662956
K        0.90937990       2.13892372      10.33796747
Sb       0.90668921       2.13539581       1.56064937
Sb       3.32851828       4.56235003       9.98545138
Eu       3.32831771       2.13731132       3.81638736
