6
Lattice="4.0191330909729 0.0 1.5784587860107422 1.1935942147796652 3.858151090645307 1.4044888019561768 0.0 0.0 4.2696332931518555" Properties=species:S:1:pos:R:3 pbc="T T T"
Mn       3.56673602       1.01751854       2.32262333
V        2.14141023       2.93638013       2.22445947
C        4.15914530       2.94565848       3.02969469
Mn       4.16034835       2.94729306       5.17028460
Mn       0.89154461       0.57480600       2.80435244
Mn       2.22777747       1.46037222       4.53018795
