12
Lattice="4.085252506498008 -0.0002147733684505327 0.9343504179225275 1.7337986194340536 7.351837933608932 1.8185604843853078 -0.04436930256422106 0.0775599300778021 9.590137439475539" Properties=species:S:1:pos:R:3:forces:R:3 structure_index=0 total_energy=-102.2879409790039 stress="-0.00419396348297596 -0.0011150327045470476 -0.002857864834368229 -0.0011152117513120174 0.014809530228376389 0.005125582683831453 -0.002857782645151019 0.005126346368342638 0.007916846312582493" pbc="T T T"
Eu       2.73273478       5.85430577       5.03899458       0.00164279       0.00388475      -0.01678421
P        1.93935640       1.50936860       8.50219277      -0.00593068      -0.00469357       0.02353170
Eu       1.32710796       2.29861775       1.77757035      -0.00290568      -0.00878429       0.01953892
Eu       5.49766658       6.67840432      11.73215263       0.00850024       0.02886301      -0.02569197
Eu       3.89850341       3.79848415       9.33946802      -0.00320548      -0.02594820       0.00356540
Eu       0.42634315       0.98019036       5.71636557       0.00998673      -0.00001281      -0.03664028
P        3.10111176       0.54845282       3.42499310       0.00081953       0.00861539      -0.00911190
P        4.69333345       3.74634865       5.86107907      -0.00357922      -0.02155889       0.01252464
P        3.32429272       4.51754887       2.43978023      -0.00625447       0.01651054       0.03983210
P        2.05463376       5.50864064       8.00369730      -0.00426216      -0.00572508       0.01562031
Pt       2.90146409       2.80833030       4.29021364       0.00354401       0.01042622      -0.01063734
Pt       2.31563516       3.32216415       6.86336371       0.00164440      -0.00157695      -0.01574741
