12
Lattice="4.516852855682373 0.0 1.350356101989746 2.060863052794502 4.019025704191724 1.3529138565063477 0.0 0.0 8.263068199157715" Properties=species:S:1:pos:R:3 pbc="T T T"
Fe       2.93872891       1.07708685       4.32326063
Fe       1.10777374       1.33368553       6.36851561
Fe       4.38042752       3.33937899       3.61688841
Fe       4.39328869       3.34960198       7.71890173
Fe       3.35993297       1.33290920       7.04268834
Ta       1.72224689       3.09254625       8.42493171
Co       5.00308397       2.33674943       5.66395238
Co       1.71251435       0.32607450       8.44919341
Fe       2.12869684       3.34026164       2.94591133
Fe       1.09577288       1.32399569       2.26381310
Mo       3.73351334       1.56133821       1.67056015
Mo       2.56608139       3.60810456       5.59186181
