15
Lattice="5.24794738840055 -0.1552285909659727 0.2809725351797065 -0.299921883198721 6.155035374975864 -2.216658826014863 0.38808108021745025 -0.12029720639589994 7.536307719421896" Properties=species:S:1:pos:R:3:forces:R:3 structure_index=0 total_energy=-126.83148193359375 stress="0.0022924458608031273 0.0004711601650342345 -0.0003841689904220402 0.00047840201295912266 -0.0004854532890021801 3.322930569993332e-05 -0.000382357306079939 2.911586307163816e-05 -0.0009015014511533082" pbc="T T T"
Mn       3.02004726       4.12147875       4.11270116       0.00759596       0.00285476      -0.00276107
Mn       1.20472148       1.63152719       6.32938701      -0.01039157       0.00378168      -0.00269789
O        4.76855759       3.81403684       3.00527241       0.03173995      -0.01257730       0.03419399
Eu       0.52685570       1.58129826       2.66669302      -0.00251345      -0.01765458       0.00767583
P        0.52881650       4.94880409       2.05389427       0.01128985      -0.00434697       0.01121768
O        3.60944080       5.60800283       5.45849044       0.00850600       0.00547910      -0.00559819
P        3.33562716       0.92238214       0.85379825      -0.00865871       0.00258030      -0.00871183
O        4.40575559       1.95119884       0.37230879      -0.01706278       0.01240659      -0.01067805
O        0.73036444       0.23889716       4.85066740       0.00238261      -0.00507212       0.00477630
O        2.43012986       2.99776538       5.61726965      -0.01135634       0.00902092      -0.00332424
O        0.30467607       5.06709582       0.52288466      -0.01915511      -0.01388240       0.02077079
O        3.47655025       0.69160957       2.38728500      -0.00766020       0.00591028      -0.01088548
O        1.94172506       4.31866662       2.30493881       0.03398037       0.02293974      -0.01476539
O        1.92081898       1.53502719       0.60763829      -0.02167273      -0.01829004      -0.00584756
Eu       3.05858144       4.13943329      -0.01633740       0.00297764       0.00684820      -0.01336473
