8
Lattice="3.63985455438821 0.001387301841105662 0.000990102167439409 -1.8215321752614784 3.1516006240177337 -0.0009992874630877341 0.004670982744438856 0.0037376540449694314 12.519158763821952" Properties=species:S:1:pos:R:3:forces:R:3 structure_index=0 total_energy=-77.17111206054688 stress="0.0027188006788492203 -0.0005922639393247664 0.00023449263244401664 -0.0005919159157201648 0.0036816697102040052 0.0013520540669560432 0.00023229872749652714 0.0013519106432795525 0.014907789416611195" pbc="T T T"
Eu       0.96698829       2.59404261       8.23453253      -0.00185327       0.00017767      -0.01121505
Eu       0.96469623       0.49169438       1.87342695      -0.00071487      -0.00072773       0.01368529
Eu       0.96258799       2.59337655       4.59457120       0.00081997       0.00028058       0.02809599
N       -0.85579777       1.54184142       3.22879555      -0.00216322      -0.00036332       0.02140772
Eu      -0.85442542       1.54304391      10.96467134       0.00325184       0.00084662      -0.00542298
N        0.96705821       0.49288308       9.62329106       0.00071330       0.00010822      -0.02656204
F        0.96232844       2.59257182       0.17097498       0.00002661      -0.00075163      -0.01550954
F        0.96422323       0.49156411       6.31428886      -0.00008054       0.00042941      -0.00447936
