20
Lattice="3.565338134765625 0.0 0.491472452878952 1.2258378118716353 7.312682441606321 3.182504415512085 0.0 0.0 11.564297676086426" Properties=species:S:1:pos:R:3 pbc="T T T"
Gd       2.98101589       1.46466145       1.79505459
O        3.56540641       5.47898493       8.63206762
O        0.55593364       0.34170670       5.28557422
Eu       3.16101580       4.42828484      12.02887917
Eu       1.73266869       0.15981563       9.84926067
O        2.84870866       5.36904859       2.66298446
H        3.69432004       3.81320995       6.33237061
O        3.93141114       6.75108871       5.91087557
O        2.01263165       1.76977772       8.07383851
Eu       0.96465957       4.21250189       3.34251539
Gd       1.95568601       6.00031397       6.85239800
O        1.37347824       6.24445852      11.59248058
Eu       3.64686319       3.08816494       9.08738297
Ni       1.66873254       5.93518442       9.63903645
O        1.62648638       3.98431579      10.11398354
O        1.09322635       3.71756433       5.96180571
O        3.35543485       1.29444440      11.09504473
Gd       2.28206643       1.58156231       5.83341600
O        1.24225392       2.84889185      12.89769639
O        2.75698848       2.57962530       3.87224711
