9
Lattice="4.34401798248291 0.0 -0.0013667891034856439 -0.007373406028151488 7.592223401669921 -4.385467529296875 0.0 0.0 8.779388427734375" Properties=species:S:1:pos:R:3 pbc="T T T"
Eu       4.12592527       4.33507207       0.16133842
Eu       4.12277689       5.79061203       4.54895466
Eu       4.12843933       1.27236709       3.62186521
Eu       1.95529138       1.27352828       0.50877043
Pt       4.12780524       1.27608554       7.16586817
Eu       1.95156432       7.01836831       1.71401607
Eu       1.95361625       3.10887590       6.10634487
Pb       1.95361848       3.79722221       2.77912961
Pb       1.95161564       6.33326280      -1.61386973
