20
Lattice="5.308921813964844 0.0 -0.8966262340545654 -1.063763802850588 6.308612965148897 -0.11389295756816864 0.0 0.0 6.256109714508057" Properties=species:S:1:pos:R:3 pbc="T T T"
C        2.81592415       2.38828690       1.77051079
Mn       3.64318192       0.89838059       2.76115239
Mn       1.48150609       6.28554962       0.06662589
C       -0.33208858       6.04418445       5.75122608
Mn      -0.46342724       5.09089299       1.20203150
Mn       1.15894330       1.34300272       1.72701769
Mn       1.61574742       0.13053880       4.04034016
Mn       1.60846071       3.85095911       1.20643585
Mn       2.07161481       2.76892051       3.79494386
C        2.14934224       4.01719646       5.46482255
Mn       0.21680170       4.12462612       5.24879053
C        3.25417302       1.02978320       4.70290209
Mn       4.78052840       2.85499341       1.72554809
C        0.38711323       1.60201454       3.63603134
Mn      -0.05105350       1.56709097       5.59088293
C       -0.12357323       3.05775966       0.74405894
Sn       3.62167794       4.83415903       2.51752251
Mn       3.26374588       2.52084164      -0.21342880
C        1.09550636       5.91951414       2.01279116
Mn       3.09927129       5.54765295       4.78641077
