10
Lattice="5.344176699186046 0.0034308931159440855 -0.05751448462640441 -2.6985643433889925 3.9159162854020204 -2.4830694540790605 0.03806179006327201 -0.022910148561730515 5.66609231457383" Properties=species:S:1:pos:R:3:forces:R:3 structure_index=0 total_energy=-72.7319564819336 stress="-0.05317306146025658 -0.006915330421179533 -0.011010958813130856 -0.0069142114371061325 -0.03569476678967476 0.001332653104327619 -0.011013779789209366 0.0013313492527231574 -0.04233252629637718" pbc="T T T"
Fe       3.44623322       1.16803656       1.01830250      -0.03912910      -0.01214569       0.01930480
Fe       0.77898311       1.15849034       3.89558554       0.01563050      -0.00803383      -0.01806287
W       -1.92762959       3.46762879      -1.06542199      -0.02542672      -0.00672340       0.00458962
Mn       0.77050125       3.37198784       1.63086722      -0.00199868       0.01780097      -0.00994720
O        1.53142336       1.38133051       1.75410820      -0.02545570       0.02965242       0.00402203
O       -0.24548163       3.01743245       3.69526085       0.03105068      -0.00376789      -0.01224387
O        5.14263681       0.19186198      -0.18821487       0.02442628       0.01409084      -0.00036609
O       -1.12154910       3.04843733       0.72259411       0.01180945       0.00272266       0.02134436
O        2.67155188       1.68840163      -1.11193496       0.02042732      -0.02005255      -0.00265899
O        4.59138726       0.25306494       2.48332427      -0.01133409      -0.01354323      -0.00598159
