4
Lattice="4.360071778273717 0.0003334826705119565 0.015907010187687167 -2.187149437206585 3.7700537571223367 0.0023309807925936763 -0.01638069132269455 -0.011249205571455484 7.187568553494481" Properties=species:S:1:pos:R:3:forces:R:3 structure_index=0 total_energy=-10.678548812866211 stress="0.03852793201804161 -0.0066627501510083675 0.0031305341981351376 -0.006662760861217976 0.024814272299408913 0.0032426146790385246 0.0031302613206207752 0.0032426249235868454 0.031084908172488213" pbc="T T T"
Te       0.68166161       1.90257298       7.02483012      -0.00130408      -0.01003516       0.02935215
Te      -1.49513107       3.17011116       3.42556954      -0.01324413      -0.00183555       0.03032254
Zn      -1.48483150       3.16309959       0.74994701      -0.00301153       0.01585192      -0.01602796
Zn       0.67846147       1.91375776       4.35286728       0.01755972      -0.00398120      -0.04364672
