11
Lattice="3.995527505874634 0.0 -0.008512216620147228 -0.007739362438944141 3.826404135621616 -1.2982325553894043 0.0 0.0 12.540172576904297" Properties=species:S:1:pos:R:3 pbc="T T T"
Ge       3.27567331       0.87814137       3.72299689
Tb       1.27139525       2.45027272       2.06634732
Tb       1.27271858       1.63622992       5.93488723
Ge       1.26296869       3.55490559      -0.95906088
Co       3.26024331       3.13030267      10.32951115
Co       3.26804628       0.13281034       1.52122481
Ge       3.27382795       0.08851049       7.63402172
Co       3.27009412       2.41329572       8.19890959
Co       3.26639387       3.15959891       4.17001434
Tb       1.27097661       0.84381514       9.87352436
Ge       3.26472530       1.63967745      -0.32432150
