11
Lattice="4.037518826926283 0.004040272148878626 -0.004441979920794596 -0.005295966455025421 3.8536830677553686 -1.308565745648906 0.012847372580703367 -0.022257475501051272 12.5743070331399" Properties=species:S:1:pos:R:3:forces:R:3 structure_index=0 total_energy=-66.02169799804688 stress="0.030245618894696236 -2.0795176169485785e-05 -2.0802805011044256e-05 -2.065552143903915e-05 0.037836235016584396 -0.0008262636256404221 -2.1205736629781313e-05 -0.0008265689248219132 0.03668622300028801" pbc="T T T"
Ge       3.31112834       0.87529782       3.71960572      -0.00307957       0.01497988       0.02434655
Tb       1.28855512       2.46212719       2.06960696      -0.00398939       0.00739587       0.01834959
Tb       1.29414495       1.64255764       5.95655259      -0.00293974      -0.00348159      -0.00351140
Ge       1.27986396       3.58389795      -0.96050105       0.00380858      -0.01465321      -0.04241714
Co       3.31037100       3.12529949      10.31820750       0.00398100      -0.00601479      -0.01817772
Co       3.30531892       0.12814143       1.51297911       0.00214645      -0.00120069      -0.00112909
Ge       3.31543689       0.09674970       7.72136355      -0.00113689      -0.01395994      -0.03639498
Co       3.31308884       2.39796776       8.16925603      -0.00239834      -0.00338131       0.00378454
Co       3.30889750       3.19331739       4.21567794      -0.00025129       0.01592311       0.04225224
Tb       1.29604599       0.82724826       9.88431744       0.00100706       0.01421629       0.04521663
Ge       3.30161120       1.66063393      -0.30373624       0.00285208      -0.00982363      -0.03231921
