14
Lattice="3.1173169769865927 -0.23644675322112657 0.4108722364950574 -0.5852337030553336 5.014352706761679 -1.6373615264492891 1.3473504863226369 -0.0338292547777986 10.669069025554961" Properties=species:S:1:pos:R:3:forces:R:3 structure_index=0 total_energy=-102.46422576904297 stress="0.0012123406631872058 0.00134063302539289 -0.0015844021691009402 0.0013386184582486749 0.0010836406145244837 0.00038916736957617104 -0.0015816831728443503 0.0003950268728658557 -0.002092093462124467" pbc="T T T"
O        2.66000461       1.39564333       7.47222740       0.00463554       0.00208390      -0.00417805
Mn       2.85559565       2.85236866       8.77207459      -0.03967573      -0.01539168       0.02066441
O        0.77637815       1.49000100       1.87870271      -0.00702527      -0.00315978       0.00293496
Mn       0.59845038       3.03030797       3.24694880      -0.00841119      -0.00570201       0.00220169
Mn       2.90578485       0.51141632       5.72670802       0.01743984       0.00417110      -0.00591651
O        3.70476210       1.50395001       9.97114893       0.03066075       0.03545541      -0.02806443
O        1.69395785       4.20897853       7.73271183       0.01914960       0.00016530       0.00362448
O        0.43300816       4.55354234       4.55857474       0.00369900      -0.00256277       0.00141096
Mn       0.79021041       0.60460551       0.12546602       0.01030043       0.01632836       0.00293919
O        1.91098317       1.64664493       4.36388452      -0.02873494      -0.01617384       0.01373670
Mn       1.96995627       0.29516304       2.87867437      -0.01988108      -0.01985902       0.00712498
Mg       4.02653511       0.10995883       8.43140020       0.00744874       0.00921951      -0.00432764
O        1.71243625       4.36651154      -0.49331610      -0.00433561       0.00093603      -0.00171572
O        2.42878758       4.21002925       2.52442910       0.01473020      -0.00551045      -0.01043554
