12
Lattice="5.216352462768555 0.0 -1.6484936475753784 -2.8850779618316555 4.3744521644856595 -1.5391377210617065 0.0 0.0 5.475451469421387" Properties=species:S:1:pos:R:3 pbc="T T T"
Al      -0.26677324       0.94438864       2.69035358
C        3.71180561       0.76276901       2.71513030
Mn      -1.82370111       2.94257450       1.56410718
Mn       2.21866442       0.75539705       1.51503749
Mn       0.88551748       3.17054292       1.10772945
C       -2.26326886       3.97551858      -0.07431919
Mn      -1.42395405       2.71109395       4.28370590
Mn       1.27938413       2.94188224      -1.63512406
Mn       0.10150025       0.75471091      -0.04219063
Mn       2.59071436       0.55909385       4.27969199
C       -0.27484031       3.00066894       2.70138875
C        1.73219091       1.86998943      -0.03868827
