6
Lattice="3.6100226282842223 -0.001400851794860815 2.0859518667758845 1.2029585583759868 3.403705703102576 2.0859101070882495 -0.002351094444323305 -0.001399083281453567 4.1697118300525915" Properties=species:S:1:pos:R:3:forces:R:3 structure_index=0 total_energy=-30.632892608642578 stress="0.1291584074497223 -0.0073890648782253265 -0.021990379318594933 -0.007389054633677006 0.12052495777606964 -0.012215475551784039 -0.0219896100461483 -0.01221600454300642 0.12454388290643692" pbc="T T T"
Be       0.52207203       1.44386410       1.97190886      -0.00039977       0.00356929       0.00097031
Be       0.52083566       1.44368534       4.06614026      -0.00072118      -0.00011854       0.00219017
Be       2.33514595       1.44371037       3.01958951       0.00108458       0.00025448       0.00112974
Fe       2.32853092       0.16880821       5.10525527      -0.00154834      -0.00652887      -0.00953719
Be       1.12605435       3.15381058       3.01952806      -0.00008324       0.00083492      -0.00023339
Ni       2.32845612       2.72144298       5.10409759       0.00166797       0.00198859       0.00548025
