4
Lattice="5.828518646159515 0.00040215285582450124 0.0011411563473004275 -0.0007032203088390978 5.824816718121994 0.0010519556927315865 -0.0006465605906836064 -0.0006144000774220132 5.8249631353827205" Properties=species:S:1:pos:R:3:forces:R:3 structure_index=0 total_energy=-32.56642532348633 stress="0.005604062229394913 -0.00019801115558948368 0.0003207399568054825 -0.00019794318359345198 0.0030423898715525866 0.0002964059531223029 0.0003207559057045728 0.0002964019950013608 0.0031392278615385294" pbc="T T T"
Eu       0.34048624       2.15335121       0.22438383       0.00022989       0.00039514      -0.00039474
Eu       3.25555917       5.06640892       0.22695632      -0.00024695       0.00011832      -0.00129240
Ba       0.34071659       5.06610565       3.13640960       0.00022422       0.00029655       0.00149301
Eu       3.25552067       2.15521668       3.13744260      -0.00020715      -0.00081001       0.00019413
