10
Lattice="5.418893814086914 0.0 -1.1050139665603638 -2.713970984483666 4.402585159775731 -1.6082062721252441 0.0 0.0 5.741423606872559" Properties=species:S:1:pos:R:3 pbc="T T T"
Zn       0.83391690       0.51706978       1.73346914
Fe       3.67063414       2.21598893       0.40510302
O        0.38803016       2.65411716       1.87281493
O        3.56920596       2.91951719      -1.66090144
Fe       4.44751193       1.30242755       3.35990491
Fe       1.77589187       3.07983038       3.23418916
O        2.62724252       4.07172857       0.76595242
O        2.85552388       0.77851833       1.92106141
Ge       0.88989314       3.41514587       0.13382580
O        4.55457237       0.62849842      -0.49895472
