4
Lattice="4.207892982114351 0.017916264225510913 -0.0058426166889331095 -0.01765339840129449 4.20665231391244 -0.010020588636737514 0.005818938146160052 0.010048894333467886 5.811628372203777" Properties=species:S:1:pos:R:3:forces:R:3 structure_index=0 total_energy=-19.00403594970703 stress="-0.0036491493228822947 0.0019862931221723557 -0.0059158387593925 0.0019863564521074295 -0.012719200924038887 -0.01038292981684208 -0.00591583177447319 -0.010382912121713161 -0.0011688440572470427" pbc="T T T"
Li       3.73882036       1.30004428       3.05076683       0.00088146      -0.00124901      -0.01129146
Te       1.62730996       3.39264983       3.03593388      -0.00311655       0.00187434      -0.00143918
Sc       1.62220366       3.38874319       0.12188714      -0.00033670      -0.00111002       0.02173262
Te       3.73491263       1.29396577       0.14092240       0.00257177       0.00048468      -0.00900199
