12
Lattice="4.90242862701416 0.0 -0.0028159262146800756 -0.00715593073841121 7.990528240297418 -0.018311165273189545 0.0 0.0 9.719879150390625" Properties=species:S:1:pos:R:3 pbc="T T T"
Eu       1.93067991       4.10435702       6.40765854
Eu       4.37665477       7.73630683       1.54411569
Eu       1.93377663       0.11052503       7.98216335
Eu       4.38030019       3.74627665       3.11444552
Eu       1.93338612       1.08829184       4.07201108
Au       4.37940735       5.94638503       8.50497277
Eu       1.92834530       5.09073391       0.59276646
Eu       4.37825284       6.75695821       5.44788044
Eu       4.38058831       2.75998856       8.93206068
Au       1.92726385       5.89752655       3.65498867
Au       1.92812136       1.89955245       1.00830859
Au       4.38625836       1.94840886       5.86696322
