12
Lattice="3.866727590560913 0.0 -0.0011322619393467903 -1.9408731617905783 6.499956128920551 0.452981173992157 0.0 0.0 6.313254356384277" Properties=species:S:1:pos:R:3 sample_seed=87000 sample_index_within_seed=0 benchmark_method=C0 dft_verified=F pbc="T T T"
Eu      -0.95567749       4.59093232       2.89916340
Eu       0.98089964       2.71124956       0.28100037
Eu      -0.95855305       5.94752935       5.88936285
Fe       2.91471041       1.74004069       4.18725208
O        0.98214110       1.67382757       4.39257441
O        2.91113845       2.35628241       2.23221581
O        0.98137784       6.14956547       3.97544944
O        2.91947597       0.97285699       6.05467553
O       -0.95453126       3.66819180       5.14068521
Fe       2.91677976       0.41345390       1.65195293
O        0.98411421       0.26413301       1.42323519
O        0.97744758       4.81661818       1.33222697
10
Lattice="3.8270516395568848 0.0 -0.0018880063435062766 -1.9260730824253187 6.232616158765572 -1.9194916486740112 0.0 0.0 6.256379127502441" Properties=species:S:1:pos:R:3 sample_seed=87001 sample_index_within_seed=0 benchmark_method=C0 dft_verified=F pbc="T T T"
N        0.35236857       2.54064551       1.13335996
C        2.26959509       0.57799986       4.34508881
Eu       0.34804348       3.04399996       4.93066663
Eu       2.26273514       4.34287835       1.83874988
Eu       2.27185709       0.58080389       1.22144588
N        2.26004481       4.85293844      -0.61694296
N        2.26530032       1.52596753       5.15400031
N        2.25847652       4.88802706       4.35821759
N        0.34290866       5.86004967       1.62334944
N        0.35250114       2.50190048       2.40002926
9
Lattice="4.838178634643555 0.0 0.0020190109498798847 0.004140374195680074 6.746819179401037 -3.8876819610595703 0.0 0.0 7.788491725921631" Properties=species:S:1:pos:R:3 sample_seed=87002 sample_index_within_seed=0 benchmark_method=C0 dft_verified=F pbc="T T T"
Li       4.57976282       3.86494626       3.74106891
Cd       4.57773084       1.62145820       1.62325667
Cd       2.15958832       3.86821165       5.52433168
Eu       2.16065487       3.87289057       1.03390516
Li       4.58062427       5.40872907      -1.37389185
Eu       2.15791424       1.00962686       3.86434757
Eu       2.16240562       6.73282424       3.87490817
Li       4.57829867       2.32494619       6.40606450
Cd       4.58092450       6.11930189       1.62624824
14
Lattice="5.552590370178223 0.0 0.9230141639709473 -0.11169680212287117 4.890225492436221 1.9476866722106934 0.0 0.0 7.207651615142822" Properties=species:S:1:pos:R:3 sample_seed=87003 sample_index_within_seed=0 benchmark_method=C0 dft_verified=F pbc="T T T"
Fe       1.58928461       0.69189271       2.49844417
Fe       4.68897437       1.40543918       8.39525246
Rh       0.08845497       4.21226947       7.53369769
O        5.20252186       2.74194389       7.12017660
O        0.92983266       0.37641182       7.24946394
Pb       4.91306324       2.87480958       4.67761184
Pb       1.98249086       1.98297854       5.75478911
O        3.83223681       4.78544945       9.30713792
O        0.38882322       0.82665892       4.13822263
O        2.03595819       3.85545637       7.23122187
O        1.61895983       3.63372334       4.00892236
O        3.18105998       1.87623997       2.18732766
Rh       2.15953530       3.65461722       2.01692425
O        0.39948210       2.54370911       1.63303545
6
Lattice="4.117345333099365 0.0 2.3744776248931885 1.37263817158373 3.883342350465573 2.379059314727783 0.0 0.0 4.7548980712890625" Properties=species:S:1:pos:R:3 sample_seed=87004 sample_index_within_seed=0 benchmark_method=C0 dft_verified=F pbc="T T T"
Fe       1.95572695       3.88296946       3.71707148
Fe       1.26799459       1.93881894       2.52638277
Fe       1.95481279       3.88234427       6.09171468
Pt       4.01403099       2.42757690       7.28040315
Rh       2.64116712       1.45526074       4.90135803
Fe       4.01151272       3.88259703       4.90311463
10
Lattice="5.03409481048584 0.0 -1.5747698545455933 -3.0811034008735305 4.273277788579502 -0.025494283065199852 0.0 0.0 7.762224197387695" Properties=species:S:1:pos:R:3 sample_seed=87005 sample_index_within_seed=0 benchmark_method=C0 dft_verified=F pbc="T T T"
Gd       2.31200189       1.81477877       5.64712155
Co      -0.16340394       1.76422729       2.48097100
Co      -0.60773072       3.08946620       5.49193472
Co      -1.38708758       4.16573378       3.50709470
Co       1.14716358       4.24454783      -1.07595212
Co       1.88400397       3.09693854       0.83079593
Gd       4.48793017       0.07911398       3.66418952
Gd       2.11858080       0.10854607       0.81295583
Co       0.12118773       1.99279924      -0.23573418
Co       2.65675074       1.99582937       2.75295432
10
Lattice="3.1658644676208496 0.0 0.3902823030948639 0.009282458872696528 3.3028052542960773 0.0034363027662038803 0.0 0.0 12.883852005004883" Properties=species:S:1:pos:R:3 sample_seed=87006 sample_index_within_seed=0 benchmark_method=C0 dft_verified=F pbc="T T T"
Zn       0.30674692       1.27462073       6.08767218
O        2.03783989       1.27693386       5.09238943
Fe       0.88577265       1.27509261       1.37960394
Zn       2.18127972       2.92778449       3.95144018
Fe       1.58362027       2.92601489       8.81303285
O        2.63613574       1.28031921      13.14953702
O        0.73942538       2.92900819       2.54395704
O        0.17009180       2.92565424       7.23061148
O        3.01009657       2.92435318      10.25766146
Fe       2.77623883       2.93333660      12.06194775
20
Lattice="5.69270658493042 0.0 -0.10105722397565842 6.437560475496924e-05 5.902391433364757 -0.0033361201640218496 0.0 0.0 8.206355094909668" Properties=species:S:1:pos:R:3 sample_seed=87007 sample_index_within_seed=0 benchmark_method=C0 dft_verified=F pbc="T T T"
O        1.09878603       0.02984344       7.64738058
Eu       0.21186301       4.31247751       0.96888719
Eu       2.86479654       1.36470420       0.93361472
Nd       0.11428552       1.67458438       3.02936234
Nd       2.96169578       4.62702902       7.08079022
Mn       0.11513010       1.67560762       7.13397339
Mn       2.96139005       4.62588775       2.97762853
O        4.82311291       3.32142819       6.51847527
Eu       3.05707501       1.98725687       5.02643134
Eu       0.01805097       4.93948023       5.08623756
O        1.38092222       5.69125481       2.54068239
O        3.94580137       0.36905087       3.49529427
O        4.22900648       0.61000529       6.59745217
O        4.53889848       3.55888231       3.41526720
O        5.16062350       1.94351019       0.68740906
O        1.69207974       2.74277190       7.56952418
O        2.31108330       4.36165491       4.83872566
O        1.97713829       2.97926593       2.46392947
O        3.61158757       4.89212626       1.11862033
O        0.76084963       1.41024441       5.27159043
6
Lattice="2.835676431655884 0.0 0.0008179304422810674 0.0005771638299991355 3.8205244105209624 -1.2647595405578613 0.0 0.0 6.38875675201416" Properties=species:S:1:pos:R:3 sample_seed=87008 sample_index_within_seed=0 benchmark_method=C0 dft_verified=F pbc="T T T"
Fe       0.78493748       1.80742078       1.01514133
Fe       2.20379265       2.44100744       2.92432299
Fe       0.78590931       3.08210035       4.86239812
Fe       2.20326811       1.16398234       5.46588555
Co       2.20341218       3.71309543       0.36660837
Co       0.78541301       0.53419293       3.56569825
4
Lattice="4.334066390991211 0.0 -2.38261079788208 -1.2638600325805103 4.145302450963376 -2.3829827308654785 0.0 0.0 5.109652996063232" Properties=species:S:1:pos:R:3 sample_seed=87009 sample_index_within_seed=0 benchmark_method=C0 dft_verified=F pbc="T T T"
Eu       1.39354219       3.39574372      -2.09142545
Au      -0.14188236       1.31825122       0.29205777
Au       2.79826777       2.35032880       0.46303876
Au       1.25361851       0.28718843       2.84922432
16
Lattice="5.335163593292236 0.0 3.0868875980377197 1.7934471529643476 5.052369302671022 3.08272385597229 0.0 0.0 6.187392711639404" Properties=species:S:1:pos:R:3 sample_seed=87010 sample_index_within_seed=0 benchmark_method=C0 dft_verified=F pbc="T T T"
Mn       3.63538527       1.01732778       4.99513237
Mg       4.53204893       3.54288944       6.53578039
O        6.38598799       4.77887874       9.62381418
Ni       1.86381172       3.54156982       8.08699050
Ni       0.96721204       1.01601629       3.45155385
O        5.44503081       2.30843898       8.01987795
Mn       4.53087397       3.54322732       9.63017543
Mn       0.96942825       1.01686258       6.54594567
Mn       3.63386856       1.01661693       8.08908663
O        6.30529119       4.73028965       6.53068741
O        3.61875327       4.77745975       5.05241259
O        2.67566316       2.30496151       3.44747756
O        5.44471304       2.30965350       5.05498552
O        2.75778930       2.35505588       6.54134969
Ni       1.86381796       3.54237026       4.99289909
O        3.61623833       4.77661263       8.01844390
9
Lattice="4.261847496032715 0.0 -0.00463819270953536 0.0006088532975712361 6.318634957543389 -3.5447301864624023 0.0 0.0 7.393773555755615" Properties=species:S:1:pos:R:3 sample_seed=87011 sample_index_within_seed=0 benchmark_method=C0 dft_verified=F pbc="T T T"
Cu       3.90640796       4.14278074       3.53798693
Eu       1.77446211       2.07698035       2.90253646
Eu       1.77870583       5.73311139       2.02976665
Eu       1.77657474       4.87426452      -1.76515334
Al       3.90694787       3.58495645       0.67626597
Cu       3.90841658       6.28642830      -0.05256441
Al       3.90789583       2.10802439       5.44894707
Al       1.77594117       2.08745303      -0.19811118
Cu       3.90714360       0.72075924       0.55133175
8
Lattice="2.8635330200195312 0.0 -0.00024590420071035624 -0.0031489556021331603 2.86395972705083 7.385850040009245e-06 0.0 0.0 11.4542236328125" Properties=species:S:1:pos:R:3 sample_seed=87012 sample_index_within_seed=0 benchmark_method=C0 dft_verified=F pbc="T T T"
Co       0.22948530       1.90965888       8.20029727
Co       0.23171048       1.91060834       5.35949367
Fe       1.66274792       0.47796183       9.64003683
Co       1.66311868       0.47916018       1.06161759
Fe       1.66247606       0.47870632       6.75499764
Co       0.22958552       1.90882174      11.01403746
Co       1.66522510       0.47848483       3.88578103
Fe       0.22987664       1.90998185       2.45553374
8
Lattice="4.814712047576904 0.0 -1.0630310773849487 -3.433469172465607 3.979844439536814 -1.4707235097885132 0.0 0.0 4.779082298278809" Properties=species:S:1:pos:R:3 sample_seed=87013 sample_index_within_seed=0 benchmark_method=C0 dft_verified=F pbc="T T T"
Fe       1.90708712       1.29425309       2.64040991
Fe      -1.14125226       3.19517639      -0.09952646
Fe       2.89974432       1.17955762       0.09264099
Fe       0.26035139       3.25276609       1.99985393
Si       0.45328578       1.18304661       0.70700749
Fe       1.25653511       3.13062650      -0.55239630
Si      -2.11277887       3.24860553       2.44740705
Fe      -0.51478635       1.23634813       3.25167367
12
Lattice="3.45729923248291 0.0 0.005294643808156252 -3.9192974593742596e-05 4.930272579037334 0.0016571953892707825 0.0 0.0 7.403578758239746" Properties=species:S:1:pos:R:3 sample_seed=87014 sample_index_within_seed=0 benchmark_method=C0 dft_verified=F pbc="T T T"
Mn       3.20096372       1.81047684       5.24397980
Mn       1.47474972       3.06030748       4.02678498
Mn       3.20053882       1.83515463       2.79742080
Mn       1.47156430       0.56794631       6.49711584
Mn       3.20081765       4.29457594       2.77537356
Co       1.47191567       0.59237633       4.02591269
Co       3.20045076       4.27970038       5.24752867
Mn       1.47223174       3.03360818       6.47893367
Co       1.47218774       3.06085554       1.55765355
Co       3.20231079       4.27620013       0.31703766
Co       1.47325674       0.59731928       1.55379103
Co       3.20186361       1.81320716       0.31058880
4
Lattice="5.249369144439697 0.0 -0.005934442393481731 -0.00447001836533952 5.03004400000402 -0.002799284877255559 0.0 0.0 5.030117988586426" Properties=species:S:1:pos:R:3 sample_seed=87015 sample_index_within_seed=0 benchmark_method=C0 dft_verified=F pbc="T T T"
Y        4.81616312       4.18652605       2.19758402
Eu       2.19210431       4.18495922       4.71597198
Eu       2.19415355       1.67071868       2.20233654
Pb       4.81921875       1.67054104       4.71307535
14
Lattice="4.9273529052734375 0.0 -0.9538182616233826 -1.7305665498330998 4.79659797988534 -2.380343198776245 0.0 0.0 6.6423020362854" Properties=species:S:1:pos:R:3 sample_seed=87016 sample_index_within_seed=0 benchmark_method=C0 dft_verified=F pbc="T T T"
Ni       2.61533699       0.90624387      -0.63236052
Fe      -0.43677459       3.66770343       3.17457717
Fe       3.50898578       2.23147905       4.11988825
Fe       2.38825167       4.31726599      -1.64519974
Ni      -0.93846662       2.95881786       0.78768570
Fe       4.60709494       0.17750593       3.13955616
Ni       1.52107590       2.94765463       0.28124412
Fe       0.69129200       1.58629861       2.18275296
Ni       1.03546090       2.24325196       4.55600803
Ni       3.13691686       1.59998048       1.71576281
Ni       2.00914915       3.62846058       2.67099250
Ni       2.15868220       0.20008855       3.62330907
Ni       0.16133650       0.88953854      -0.17223414
Ni      -0.05348592       4.30562302      -1.10011999
12
Lattice="4.828766345977783 0.0 1.4504526853561401 2.1954832158817643 4.299725322594274 1.450147032737732 0.0 0.0 8.767505645751953" Properties=species:S:1:pos:R:3 sample_seed=87017 sample_index_within_seed=0 benchmark_method=C0 dft_verified=F pbc="T T T"
Ni       1.31323390       1.35368652       1.19255562
Fe       4.40162785       0.28788375       4.06576943
Ni       6.00003451       4.22319571       3.12110739
Dy       2.66423768       2.18081685       5.46597192
Fe       5.49705421       2.43751691       4.78932090
Fe       0.71580171       0.98928001       7.56573786
Fe       1.98387225       0.28735770       3.34043672
Fe       4.97346951       0.63911966       6.53899773
Dy       4.64818758       3.39552654       7.62175968
Fe       1.81462353       3.13982906       8.29075359
Fe       3.13137568       0.98859150       8.29151667
Dy       3.65523074       2.78818028       2.15687165
16
Lattice="6.488311290740967 0.0 2.679917097091675 1.9125368509170912 7.948603648736608 1.954172968864441 0.0 0.0 9.046907424926758" Properties=species:S:1:pos:R:3 sample_seed=87018 sample_index_within_seed=0 benchmark_method=C0 dft_verified=F pbc="T T T"
Eu       4.76367873       6.29839111      11.00869399
Eu       2.50855329       1.83251485       4.25829427
P        0.08431403       0.33390069       3.68545405
Eu       2.04772200       7.57222787       8.43003343
Eu       7.46733826       5.01723692       4.54227923
Eu       5.11106736       2.81326205       6.76193672
Eu       6.05952510       6.79609607       7.73733179
Eu       3.80914247       2.32659176      10.03118826
Eu       6.52255285       1.04279900       3.55355027
Eu       3.46651737       5.80517090       5.24529560
P        6.00098501       7.59533666       4.52583968
P        2.56573837       1.02715736       7.46823337
P        1.03943896       4.30827154       4.66294435
Eu       1.10498150       3.61860651       7.45352512
P        3.55270175       4.99968360       8.44540775
P        5.02641684       3.61937331       3.54886568
4
Lattice="3.739257574081421 0.0 2.16060471534729 1.24502796654906 3.5267957616878007 2.1642558574676514 0.0 0.0 4.320091247558594" Properties=species:S:1:pos:R:3 sample_seed=87019 sample_index_within_seed=0 benchmark_method=C0 dft_verified=F pbc="T T T"
Mn       3.03682563       2.60430491       6.20883720
Mn       0.54601908       0.84078973       1.88730510
Ir       1.79133784       1.72270855       4.04849838
Ir       4.28382657       3.48577135       4.05048655
4
Lattice="4.842860221862793 0.0 -0.021386368200182915 -2.4306122541183868 3.428694621148232 -2.421372652053833 0.0 0.0 4.842447280883789" Properties=species:S:1:pos:R:3 sample_seed=87020 sample_index_within_seed=0 benchmark_method=C0 dft_verified=F pbc="T T T"
Zn       1.99929868       2.68446350       1.29237370
Zn      -0.42510746       2.68256841      -1.11289727
Gd       2.00497458       0.96852969       3.72186445
Mg      -0.41779087       0.96949328       1.31137926
5
Lattice="3.8515477180480957 0.0 -1.5087056159973145 -1.005133367086273 4.635292561998199 -2.564190626144409 0.0 0.0 5.6648969650268555" Properties=species:S:1:pos:R:3 sample_seed=87021 sample_index_within_seed=0 benchmark_method=C0 dft_verified=F pbc="T T T"
Eu       3.08719838       1.65717685       0.72532423
Mn       2.02053433       3.05602697      -1.99480367
Eu       0.95361965       4.45422147       0.95236150
Ni       0.35010084       1.87902373      -0.58970997
Ni      -0.15898657       4.23236326      -1.88834134
8
Lattice="3.139259099960327 0.0 0.0017665972700342536 0.0008936261947349336 5.144308012593324 -1.8148990869522095 0.0 0.0 5.44846248626709" Properties=species:S:1:pos:R:3 sample_seed=87022 sample_index_within_seed=0 benchmark_method=C0 dft_verified=F pbc="T T T"
Mn       2.21719003       4.42456674      -1.20205058
Mg       0.64664923       1.85338780      -0.29545254
O        2.21665619       0.61141232       4.27696641
Mn       0.64730002       4.42487429       1.52088690
O        2.21717182       3.09392614       0.58098672
Mn       2.21656635       1.85219702       2.42896824
O        0.64697237       3.10987461       3.37458061
O        0.64745398       0.59241132       1.48225442
8
Lattice="4.653505325317383 0.0 -0.8072497844696045 -2.4657935604227528 3.8920776913292623 -0.8229796886444092 0.0 0.0 4.701952934265137" Properties=species:S:1:pos:R:3 sample_seed=87023 sample_index_within_seed=0 benchmark_method=C0 dft_verified=F pbc="T T T"
Rh       2.93637426       0.07367239       1.39976919
Fe       0.54691819       1.27361157       1.40983947
H        1.43062355       2.74439631       1.37599987
Fe       2.97280043       2.61309762       0.59649643
Fe       1.56970087       3.39762571       2.97619249
Rh       1.63411291       0.64958032       3.76621448
Fe      -0.57521421       2.01691054       3.72247302
H        2.54016481       2.14559289      -1.01674677
4
Lattice="2.399075746536255 0.0 -0.7210503816604614 -0.21379428139613166 4.348023722287818 -0.7158076167106628 0.0 0.0 4.354846000671387" Properties=species:S:1:pos:R:3 sample_seed=87024 sample_index_within_seed=0 benchmark_method=C0 dft_verified=F pbc="T T T"
Fe       1.59443588       3.62897917       0.42795425
Ni       2.24342285       2.65919862       2.58877359
Ni       0.50795273       1.48072222       1.16375844
Fe       1.15624946       0.51036649       3.32312115
10
Lattice="5.235991477966309 0.0 0.015637369826436043 -2.50933373132753 3.92206330703427 -2.506190061569214 0.0 0.0 5.58335018157959" Properties=species:S:1:pos:R:3 sample_seed=87025 sample_index_within_seed=0 benchmark_method=C0 dft_verified=F pbc="T T T"
Mn       1.11216210       3.32011651      -1.95890328
Ga      -1.50458322       3.32662032       0.91974655
O        0.25176139       3.74042130       1.78631285
Mn       1.08353230       1.61187994       1.13573876
Sn       3.68944028       1.69221680       4.06014671
O        2.11389073       2.63982835      -0.43890881
O       -0.60327919       3.60517790      -1.07646784
O       -0.92189509       1.44498189       0.46317295
O        2.67255534       2.60949511       2.47950441
O        0.27923426       1.17234602       3.24540403
12
Lattice="4.453604221343994 0.0 -0.0006133968709036708 0.0006203172161523313 4.7446603369522835 -0.028442127630114555 0.0 0.0 8.151126861572266" Properties=species:S:1:pos:R:3 sample_seed=87026 sample_index_within_seed=0 benchmark_method=C0 dft_verified=F pbc="T T T"
Fe       1.32711033       0.88380569       1.22335561
Pt       1.32752752       3.23218040       8.05203577
Pt       3.55363720       4.08607817       3.99267659
Fe       3.55409654       4.02593740       6.64915979
Pt       3.55489722       1.64883775       7.93700974
Pt       3.55578220       4.06464702       1.23081991
Fe       1.32927031       3.24291846       2.58238767
Pt       3.55539366       1.69580948       2.62151021
Fe       1.32968354       0.81189201       3.87867504
Pt       1.32789443       0.80318992       6.57851722
Fe       3.55477419       1.67628810       5.26446682
Pt       1.32735647       3.16140847       5.21517321
10
Lattice="4.467494010925293 0.0 -0.9413052797317505 -0.21321950316246327 4.588585172998622 -0.9937536716461182 0.0 0.0 11.120109558105469" Properties=species:S:1:pos:R:3 sample_seed=87027 sample_index_within_seed=0 benchmark_method=C0 dft_verified=F pbc="T T T"
Gd       3.53446042       2.52962925       2.01639215
Gd       2.57064506       1.49909284       8.55475028
Gd       1.88113207       3.16285843       5.27843832
Pb       0.20954748       3.76304651       8.41738315
Gd       4.21621314       0.85803195       5.25531802
O        3.05144331       2.01260380      -0.28000664
Sm       2.94496849       4.30803251      -0.77654869
O        3.99882330       3.03436302       4.22683819
Pb       1.42684388       0.26106941       3.08375897
O        2.10745440       0.99224641       6.32924312
12
Lattice="4.679840564727783 0.0 2.220018148422241 1.7945555612427593 4.329037937650115 2.213686227798462 0.0 0.0 6.03249979019165" Properties=species:S:1:pos:R:3 sample_seed=87028 sample_index_within_seed=0 benchmark_method=C0 dft_verified=F pbc="T T T"
Mn       1.87091351       1.72111567       5.68078637
Mn       2.97760809       2.45813063       3.34368765
O        5.46989916       2.09060141       5.95733980
Ni       4.40143783       0.28276686       6.39954206
Ni       4.05659270       3.18498834       7.10005106
Ni       0.79009474       0.99620803       1.92448101
O        2.51282454       4.25131778       8.25111730
O        3.04498572       3.60224499       5.28452431
Ni       5.12333922       3.89607444       4.84374687
O        3.42760460       0.58597788       4.51317258
O        2.92435556       1.33715363       7.52737061
O        5.07480728       2.83754811       9.02395277
8
Lattice="3.7961151599884033 0.0 -0.003829947439953685 -1.8959132383288662 3.2851240350700315 0.0014340723864734173 0.0 0.0 11.449803352355957" Properties=species:S:1:pos:R:3 sample_seed=87029 sample_index_within_seed=0 benchmark_method=C0 dft_verified=F pbc="T T T"
Zn      -0.44649997       2.88328787       6.32064781
Eu       3.35247486       0.69366223       3.54854591
Zn      -0.44214631       2.88323442       0.37188398
O       -0.44646010       2.88405642       9.89393875
O       -0.44618896       2.88330921       4.42131323
Eu       1.45184376       1.78900790       8.96625489
S        1.45297977       1.78872025       1.35033653
O        3.34945221       0.69211941       7.08792638
4
Lattice="3.944457530975342 0.0 -0.0005771274445578456 0.0033007468430236507 5.435543965458322 -0.0028001051396131516 0.0 0.0 5.435715198516846" Properties=species:S:1:pos:R:3 sample_seed=87030 sample_index_within_seed=0 benchmark_method=C0 dft_verified=F pbc="T T T"
Zn       0.02711667       1.73104409       3.72690505
Eu       1.99834770       1.73154545       1.00887687
Eu       1.99730780       4.44864857       3.72490117
Sn       0.02824048       4.44888832       1.00693069
11
Lattice="3.140192747116089 0.0 0.003939794842153788 -1.5789932724788684 2.717529441877815 -0.005745330359786749 0.0 0.0 13.069356918334961" Properties=species:S:1:pos:R:3 sample_seed=87031 sample_index_within_seed=0 benchmark_method=C0 dft_verified=F pbc="T T T"
Li       0.06881593       1.61162355       4.81484358
Fe       0.08077731       1.60061978      11.19612545
O        1.64329584       0.70330699       3.73889028
Li       1.63926564       0.70611187       6.35660275
Li       1.64903856       0.69814331       0.31832583
O        1.63795208       2.51332780       6.37246102
Fe       1.63953944       2.51576734       2.61903122
O        0.07368062       1.60646263       1.60324267
O        0.05168626       1.61686871       9.22862344
Fe       1.63803728       2.51386022       8.35206621
O        1.64147491       2.51138294      12.07947636
