12
Lattice="4.742800235748291 0.0 0.001461880630813539 0.0010055780194944681 7.342253616136743 0.002127448096871376 0.0 0.0 8.292898178100586" Properties=species:S:1:pos:R:3 sample_seed=87000 sample_index_within_seed=0 benchmark_method=GBSA-TCL dft_verified=F pbc="T T T"
Eu       1.35554239       0.06916135       5.38089059
Au       3.72824807       1.64469965       7.00593665
Eu       3.73117713       0.07242703       1.75633897
Eu       3.72682104       3.74177994       1.23787055
Au       3.72885036       5.31370394       4.27811187
Au       1.35640755       1.64284201       0.13147425
Au       1.35731661       2.17377865       2.86060572
Au       3.72877065       5.84420284       7.01008907
Au       1.35763788       5.31108996       2.86128019
Au       3.72858115       2.17767445       4.27589534
Au       1.35736284       5.84170527       0.13297713
Eu       1.35639526       3.74623066       5.90124049
10
Lattice="4.70496940612793 0.0 -0.00031429625232703984 0.007761835219253621 7.555453605084416 -0.08713605254888535 0.0 0.0 7.678313255310059" Properties=species:S:1:pos:R:3 sample_seed=87001 sample_index_within_seed=0 benchmark_method=GBSA-TCL dft_verified=F pbc="T T T"
Pt       0.99127995       3.84952723       6.53942580
Eu       0.99117346       6.71263305       7.32461267
Eu       3.34151285       1.80746645       5.82312784
Eu       3.34540805       5.21418572       4.75442558
Eu       3.34562880       4.14032581       1.14578999
Eu       0.99177246       2.95174739       3.52072410
Pt       0.99298973       5.85943981       2.45442801
N        3.34189717       2.84518431       3.40230115
Eu       3.34199789       0.46291120       2.52459898
Pt       0.98972980       0.02441017       4.63708380
9
Lattice="4.34401798248291 0.0 -0.0013667891034856439 -0.007373406028151488 7.592223401669921 -4.385467529296875 0.0 0.0 8.779388427734375" Properties=species:S:1:pos:R:3 sample_seed=87002 sample_index_within_seed=0 benchmark_method=GBSA-TCL dft_verified=F pbc="T T T"
Eu       4.12592527       4.33507207       0.16133842
Eu       4.12277689       5.79061203       4.54895466
Eu       4.12843933       1.27236709       3.62186521
Eu       1.95529138       1.27352828       0.50877043
Pt       4.12780524       1.27608554       7.16586817
Eu       1.95156432       7.01836831       1.71401607
Eu       1.95361625       3.10887590       6.10634487
Pb       1.95361848       3.79722221       2.77912961
Pb       1.95161564       6.33326280      -1.61386973
14
Lattice="3.6355137825012207 0.0 -0.005461272317916155 1.812476173927649 6.8802445519995805 -0.052977193146944046 0.0 0.0 9.548674583435059" Properties=species:S:1:pos:R:3 sample_seed=87003 sample_index_within_seed=0 benchmark_method=GBSA-TCL dft_verified=F pbc="T T T"
Gd       0.66155745       2.47555020       9.48087384
O        2.47634703       6.19819296       6.30684422
Eu       2.47402397       5.68336110       1.88803924
Eu       2.47649659       0.10261707       4.75545936
O        0.66415361       0.16397358       0.05264193
O        2.47932695       2.73710563       4.76168986
Gd       4.29345653       2.89579683       3.37171665
O        2.47872998       2.10776020       8.15007075
Eu       4.29342727       6.63428379       8.07358546
O        2.47639984       3.12997865       1.53138317
O        4.28987988       5.15319089       3.18036855
O        4.29675991       4.24816434       7.98115777
O        0.66001620       0.66201571       3.39943317
Gd       2.47656790       3.86296173       6.69709000
6
Lattice="4.943511962890625 0.0 -2.8559017181396484 -1.664773693334027 4.67893495052185 -2.857386827468872 0.0 0.0 5.728630065917969" Properties=species:S:1:pos:R:3 sample_seed=87004 sample_index_within_seed=0 benchmark_method=GBSA-TCL dft_verified=F pbc="T T T"
Eu       3.69537248       1.86770767      -0.92506785
Eu       2.10200479       3.05769970       1.93972933
Pt       3.73283344       0.12443858       1.93297445
Au       1.26032706       0.12549255       0.50026104
Au       1.26078661       0.12245894       3.36440143
Au       0.42650090       2.46283393      -0.92775968
10
Lattice="4.833363056182861 0.0 -0.012125982902944088 -0.007799997427882435 5.550651791907728 -1.6726802587509155 0.0 0.0 9.605518341064453" Properties=species:S:1:pos:R:3 sample_seed=87005 sample_index_within_seed=0 benchmark_method=GBSA-TCL dft_verified=F pbc="T T T"
Eu       1.04841731       4.16032654       3.06227055
Eu       3.46619760       1.06906238       3.21730813
Au       1.05006820       1.76143979       5.16565498
Au       3.46731010       0.07462655       6.23397895
Eu       3.46075828       3.22795873       6.66019470
Eu       1.05083370       0.76607669       8.18039097
Au       1.04677659       4.04575537      -0.68908175
Au       3.46488558       3.32874492       0.80829752
Au       1.05005959       1.68182253       1.41037861
Au       3.46927238       0.15389807       0.38085506
10
Lattice="3.805488348007202 0.0 -0.0008974851807579398 -1.8994696159086297 7.922948905949143 -0.49770236015319824 0.0 0.0 9.198564529418945" Properties=species:S:1:pos:R:3 sample_seed=87006 sample_index_within_seed=0 benchmark_method=GBSA-TCL dft_verified=F pbc="T T T"
O        0.35244099       3.78467105       3.44502619
Eu       0.34886168       1.48840504       4.49057494
Eu       2.25867908       4.51860686       4.97737455
Eu       2.25295501       3.11672363       1.87109538
Eu       0.35273667       7.66247345       6.70941672
Eu       0.35478527       6.27679647       2.26255048
Eu       0.35346620       2.89015651       7.59942792
O        2.25572497       2.22402227       6.02446529
Pb       2.25561543       5.40651021       8.61565080
Pb       0.35053657       0.60648078       0.85688267
20
Lattice="5.785731315612793 0.0 0.0016571274027228355 0.0021616324680622037 6.0470076512062265 0.0023807347752153873 0.0 0.0 8.561666488647461" Properties=species:S:1:pos:R:3 sample_seed=87007 sample_index_within_seed=0 benchmark_method=GBSA-TCL dft_verified=F pbc="T T T"
O        5.50266764       2.00762449       3.86241971
Eu       3.57792236       1.83015465       8.10942817
Y        3.48146174       4.54159426       5.99592004
O        4.55098791       0.37519110       1.04744144
Gd       3.48031327       4.54323385       1.71025124
O        1.65110076       5.67374409       2.38907265
Gd       3.37929912       1.21258703       3.87316748
Y        0.58415615       1.51821045       5.99270504
O        2.41289709       2.65023467       2.39098917
Eu       0.48794268       4.85411640       8.11630778
O        1.41232145       1.06074077       8.11982079
Gd       0.68707549       4.23481808       3.87230938
O        1.66277470       5.68011576       5.30979956
O        5.29566503       3.38976028       6.65651161
Gd       0.58452289       1.51997818       1.70758607
O        5.30103137       3.39948431       1.05413012
O        4.34921334       5.03065236       3.86550444
O        4.55548450       0.36558477       6.65389372
O        2.40756815       2.65399125       5.31505988
O        2.65094040       4.08844612       8.12237820
6
Lattice="4.301296710968018 0.0 0.746256411075592 2.0949029282755727 3.7644413755229267 0.741793155670166 0.0 0.0 12.803647994995117" Properties=species:S:1:pos:R:3 sample_seed=87008 sample_index_within_seed=0 benchmark_method=GBSA-TCL dft_verified=F pbc="T T T"
Eu       0.74209534       1.17701899       1.02626380
Ga       2.50737837       2.21769032       3.63761723
I        3.24446443       0.11094601      12.14561725
Eu       4.28364527       0.73423691       6.16180526
Ga       4.61646169       3.45936579       4.28062103
I        1.78302006       1.80081134       7.84660115
4
Lattice="3.826141834259033 0.0 0.05695094168186188 0.076652109777559 5.35281232995328 0.052104830741882324 0.0 0.0 5.355541706085205" Properties=species:S:1:pos:R:3 sample_seed=87009 sample_index_within_seed=0 benchmark_method=GBSA-TCL dft_verified=F pbc="T T T"
Eu       1.56564467       1.11674636       2.66440506
Eu       1.58704996       3.78903213       0.08064506
Au       3.51078109       3.78489721       2.82384057
Au       3.46784111       1.12014005       5.33267265
16
Lattice="3.74513840675354 0.0 -0.004390607122331858 0.00015485944833901893 3.4970550502821314 0.007053907494992018 0.0 0.0 16.742431640625" Properties=species:S:1:pos:R:3 sample_seed=87010 sample_index_within_seed=0 benchmark_method=GBSA-TCL dft_verified=F pbc="T T T"
S        0.12743148       0.54373863       0.68706355
Gd       0.14528001       0.54185531       6.45461738
Fe       2.00923675       0.54931635       8.79108942
Li       0.13340495       2.28973719       3.63875817
Fe       1.99758948       2.29025225       0.58611636
Gd       0.12865580       0.55194817      14.78150124
Gd       0.13086812       0.55791203      11.15707386
O        0.12827155       2.30105052      13.00205623
O        2.01413234       2.28799942       6.75541450
O        2.00837651       2.30533336      10.82867761
Fe       2.00867374       0.53844366       3.13832538
O        0.13663539       0.54121999       4.26765841
Fe       2.00608876       2.30282290      12.98129591
O        2.00443459       2.30169773      15.07840260
O        2.00328800       2.28931489       2.74964884
O        0.14003435       0.54894960       8.83174712
9
Lattice="3.6701488494873047 0.0 0.570670485496521 1.5614556799983739 6.6182639548019 2.107044219970703 0.0 0.0 12.317580223083496" Properties=species:S:1:pos:R:3 sample_seed=87011 sample_index_within_seed=0 benchmark_method=GBSA-TCL dft_verified=F pbc="T T T"
Eu       2.41866102       2.16299770       7.81062789
Eu       3.71497079       2.38811321      11.60718822
Eu       4.22438307       5.64288397       8.31991434
Eu       1.85008715       5.86994703      11.53888006
Al       1.01822025       1.51344340       4.65249392
Al       3.25168086       6.52443075       2.37948404
Eu       2.82996259       4.31320717       5.12770636
Eu       1.44089318       3.72488907       1.91003681
Sc       3.19028547       0.70810045       2.74949683
8
Lattice="4.214351177215576 0.0 0.00018871435895562172 -2.1060122413201734 6.67639417314195 0.015962086617946625 0.0 0.0 10.070311546325684" Properties=species:S:1:pos:R:3 sample_seed=87012 sample_index_within_seed=0 benchmark_method=GBSA-TCL dft_verified=F pbc="T T T"
Eu       2.19487600       0.33562280       0.88477856
Eu       0.08929938       3.22612687       9.70296669
Eu       2.19451882       4.16551770       2.77874959
Au       0.08809733       1.76928495       2.77079191
Eu       2.19387742       0.33579663       4.65432744
Au       2.19471967       1.78262245       7.81198043
Eu       0.08615419       3.22008469       5.92864641
Eu       2.19376266       6.06950196       7.82243117
8
Lattice="4.384860515594482 0.0 -0.006003066897392273 -0.0008894847380054315 5.363720820106669 0.006658536847680807 0.0 0.0 6.490501880645752" Properties=species:S:1:pos:R:3 sample_seed=87013 sample_index_within_seed=0 benchmark_method=GBSA-TCL dft_verified=F pbc="T T T"
Gd       0.01142680       4.54077097       1.56863422
Pt       2.20486440       0.52145340       6.05445902
Pt       2.20415743       3.20069949       6.05871311
Pt       2.20399566       1.84999389       2.10596715
Pt       2.20475994       4.54299610       3.52539508
Pt       0.01110522       4.54302264       5.12106427
Gd       0.01276302       1.86383446       4.07087825
Pt       0.01147540       1.86152844       0.51840431
12
Lattice="4.899550437927246 0.0 0.0002801403752528131 -0.0017189268595040332 7.916818909001929 -5.602779856417328e-05 0.0 0.0 9.615492820739746" Properties=species:S:1:pos:R:3 sample_seed=87014 sample_index_within_seed=0 benchmark_method=GBSA-TCL dft_verified=F pbc="T T T"
Au       3.99526380       3.49932552       5.85832990
Au       1.54757017       3.56543579       1.04546502
Eu       3.99420128       5.67601050       0.49122428
Eu       1.54367441       4.36438268       7.62110195
Eu       3.99488446       2.70432141       2.81906103
Au       1.54421481       7.52252422       7.99283630
Eu       1.54458415       0.40440276       1.41712933
Eu       3.99322661       1.71826557       8.54486971
Eu       3.99285448       6.66964554       6.22073118
Au       3.99188379       7.46572742       3.18429117
Eu       1.54265796       5.36315224       3.73423163
Eu       1.54462244       1.39486223       5.30151908
4
Lattice="3.8083677291870117 0.0 0.5963005423545837 1.8541091158368053 3.330497161347443 0.595639705657959 0.0 0.0 12.381841659545898" Properties=species:S:1:pos:R:3 sample_seed=87015 sample_index_within_seed=0 benchmark_method=GBSA-TCL dft_verified=F pbc="T T T"
Li       2.25448579       0.19740660       1.02544120
Eu       3.16713464       2.97397379       7.60466832
Eu       3.70056094       1.04987574       4.24480706
Eu       4.58634477       1.57018294      10.98954849
14
Lattice="6.957433223724365 0.0 -2.4574103355407715 -3.479625022360779 6.027960351102563 -2.458143949508667 0.0 0.0 7.375833988189697" Properties=species:S:1:pos:R:3 sample_seed=87016 sample_index_within_seed=0 benchmark_method=GBSA-TCL dft_verified=F pbc="T T T"
Gd       2.33461738       5.06747039      -3.78883560
Gd      -1.58776198       5.82771191       3.58072767
Gd      -0.27023232       2.06415174       3.58155812
Gd       2.33263919       3.56974902      -0.10098045
Pt       0.15324898       4.33289472       1.68930915
Gd      -1.57887304       2.81910570      -0.10209058
Pt       0.16616101       4.32133083      -1.98979117
Pt       4.17520723       1.30604012      -0.30067802
Pt       4.24038894       3.27498782       2.17202282
Pt      -2.71694957       5.37089814       0.93245627
Pt       2.50714119       2.35160220       4.62912883
Gd       3.19951550       0.56144570       2.35360573
Pt       0.69530897       1.30484682       0.93592171
Pt       5.97582348       0.26944244       3.38870577
12
Lattice="5.79362154006958 0.0 0.003611174179241061 -2.725912104660552 4.922379024815796 0.00017482291150372475 0.0 0.0 9.227625846862793" Properties=species:S:1:pos:R:3 sample_seed=87017 sample_index_within_seed=0 benchmark_method=GBSA-TCL dft_verified=F pbc="T T T"
Eu       1.03436518       0.09859044       0.67492629
Pt       3.93162346       0.09837443       5.29000743
Eu      -0.32931687       2.55809667       2.98251589
Eu      -0.32844972       2.55579526       7.59147217
Pt       3.93312231       0.09609188       0.67263663
Eu       1.03948717       0.09312300       5.28434169
Pt       2.85361666       1.10133827       2.97564094
Pt       2.56770370       2.55692601       0.67271508
Pt       2.28416933       4.01335874       7.59776847
Pt       2.85545387       1.09946428       7.59021495
Pt       2.28150045       4.01276109       2.98160869
Pt       2.57321740       2.55737462       5.28963703
16
Lattice="4.182052135467529 0.0 0.011309212073683739 -2.0775892536819796 8.913873264642714 -0.5896016359329224 0.0 0.0 11.854061126708984" Properties=species:S:1:pos:R:3 sample_seed=87018 sample_index_within_seed=0 benchmark_method=GBSA-TCL dft_verified=F pbc="T T T"
P        0.59273994       6.48072801       4.96950054
Eu       0.59825048       6.69954040       7.99011671
Eu       0.59250374       5.66299254      11.17680489
Eu      -1.49865253       8.16495072       3.57798799
Eu       2.68148006       5.56741072       2.29405153
Eu      -1.49498010       8.78231550      11.13538440
Eu       2.67857985       4.48554758       5.84604503
Eu       2.67972211       1.97635272       3.00599040
Eu       2.67995182       2.86051367      11.34899650
Eu       2.67324834       0.48072794       6.66326938
P        0.59101577       3.53653010       1.41399802
P        2.67491874       0.60771137       9.56702768
P        0.59472284       7.92564736       1.33020211
Eu       0.58840807       2.66033771       8.52785803
P        2.68755973       4.85964119       9.04181648
P        0.58597393       2.09269103       5.39237417
4
Lattice="4.90346097946167 0.0 2.8362112045288086 1.6416288812450257 4.624477928919089 2.8326416015625 0.0 0.0 5.666973114013672" Properties=species:S:1:pos:R:3 sample_seed=87019 sample_index_within_seed=0 benchmark_method=GBSA-TCL dft_verified=F pbc="T T T"
Hg       2.31647275       1.16532353       2.32379368
Eu       3.95460582       2.32126646       5.15823626
Pb       5.58965330       3.47556865       7.99315897
Eu       0.67974566       0.00838133       5.15846730
4
Lattice="3.9156343936920166 0.0 -1.231096625328064 -0.798443724326248 5.266446692687856 -2.5234644412994385 0.0 0.0 6.95012903213501" Properties=species:S:1:pos:R:3 sample_seed=87020 sample_index_within_seed=0 benchmark_method=GBSA-TCL dft_verified=F pbc="T T T"
Eu       0.45481684       3.02609703       5.15806757
Eu       2.96631923       0.64025302      -0.67221510
Eu      -0.64598645       4.46672115       1.59703298
Mg       1.71245068       1.83418713       2.24281185
5
Lattice="5.098989963531494 0.0 -8.89685470610857e-05 0.0007935001845112255 5.098067221877307 0.0010614936472848058 0.0 0.0 5.1019368171691895" Properties=species:S:1:pos:R:3 sample_seed=87021 sample_index_within_seed=0 benchmark_method=GBSA-TCL dft_verified=F pbc="T T T"
Eu       1.79929103       2.32378274       4.90598259
Eu       1.79921110       4.87297846       2.35564016
Eu       4.34951903       4.87266426       4.90684651
H        1.80010279       4.87281255       4.90828653
Pb       4.34804763       2.32376694       2.35498735
8
Lattice="4.796708106994629 0.0 -0.0026522751431912184 -0.00042101547152394083 5.09886739900013 -2.955225944519043 0.0 0.0 5.88979959487915" Properties=species:S:1:pos:R:3 sample_seed=87022 sample_index_within_seed=0 benchmark_method=GBSA-TCL dft_verified=F pbc="T T T"
Gd       1.56911877       5.02076459       2.69486939
Pt       1.57001586       4.94730744      -0.24908031
Pt       3.96797339       1.69565246      -0.24588959
Gd       3.96790985       1.62368374       2.69767725
Pt       3.96823505       4.13602873       1.15871984
Pt       1.56956579       2.50681325       4.23563644
Pt       3.96752290       4.13548593      -1.65988492
Pt       1.57015539       2.50783122       1.16416461
8
Lattice="3.631408929824829 0.0 0.006979459431022406 0.013253179119978383 6.5100105802413335 -3.2457077503204346 0.0 0.0 8.124981880187988" Properties=species:S:1:pos:R:3 sample_seed=87023 sample_index_within_seed=0 benchmark_method=GBSA-TCL dft_verified=F pbc="T T T"
Eu       3.16169024       5.56617985       2.88100950
Pt       1.34600154       4.82457708       5.33296118
Eu       3.15682586       2.40648404       4.45542036
Eu       3.15228657       0.72687148       1.33367643
Pt       1.34021528       3.17844837       2.05038746
Au       1.33757614       1.56696211       6.95347960
Eu       3.16156768       4.07841227      -0.33097310
Pt       1.34737290       6.46544143       0.48881766
4
Lattice="4.485718250274658 0.0 2.5912232398986816 1.4961038771633495 4.229099623978501 2.591139793395996 0.0 0.0 5.179399490356445" Properties=species:S:1:pos:R:3 sample_seed=87024 sample_index_within_seed=0 benchmark_method=GBSA-TCL dft_verified=F pbc="T T T"
Pt       2.97055602       1.17401415       4.40275196
Eu       1.47432902       0.11622538       1.81253206
Au       1.47561808       3.28867891       6.99276358
Eu       4.46655001       2.23158524       6.99283365
10
Lattice="4.86663293838501 0.0 -1.2520853281021118 -0.32235421998738895 4.854441302894751 -1.2574620246887207 0.0 0.0 10.085884094238281" Properties=species:S:1:pos:R:3 sample_seed=87025 sample_index_within_seed=0 benchmark_method=GBSA-TCL dft_verified=F pbc="T T T"
H        3.28244736       2.42176544       1.10309865
Gd       2.05209783       3.69955545       6.37397994
Gd       3.85495332       3.02750595       3.29530877
Gd       1.58342050       0.60065230       4.55223934
Gd       3.06639498       4.78154721       0.22085541
Gd       4.64395505       1.26852597       6.37147282
Hg       2.67545602       1.76740895       8.79640002
Gd       0.79302370       2.35228405       1.47396001
Hg       0.16918328       4.28598536      -0.95486758
H        4.42560739       3.62932016       5.48160999
12
Lattice="4.95897912979126 0.0 0.8620690107345581 2.406104811447135 4.336217425094727 0.8639806509017944 0.0 0.0 14.74446964263916" Properties=species:S:1:pos:R:3 sample_seed=87026 sample_index_within_seed=0 benchmark_method=GBSA-TCL dft_verified=F pbc="T T T"
Eu       2.79572477       0.66979320      13.18011829
Pt       3.33469559       0.98769863      10.06966945
Pt       2.57252219       3.45912956      14.48219017
Eu       5.94818383       2.52788581       9.73146527
Eu       1.74628334       0.05119219       4.50153305
Eu       4.90868783       1.91267553      15.72593377
Eu       3.08815581       3.76432948      11.49695896
Eu       2.05304245       3.15029286       2.73589867
Pt       2.26135023       0.35718029       1.53176519
Eu       3.85430327       1.29550872       7.09269175
Pt       5.42409710       2.21777956      12.74748931
Pt       6.47799452       2.84063272       6.66980407
10
Lattice="5.1712493896484375 0.0 -2.1445982456207275 -2.0625226925269406 5.161440816481396 -0.7367381453514099 0.0 0.0 7.782103061676025" Properties=species:S:1:pos:R:3 sample_seed=87027 sample_index_within_seed=0 benchmark_method=GBSA-TCL dft_verified=F pbc="T T T"
Pt      -0.02906675       0.75665857       3.20021081
Gd       2.80025446       0.86279408       2.75626431
Gd       0.00629271       0.52432285       0.12244521
Gd       0.61274913       3.20813889       4.58755504
Pt       2.93670121       4.07800690       2.52950154
Gd       2.99449844       2.86252308      -0.18629881
Pt       3.84226273       2.87867018       4.82794515
Pt       0.64211319       2.96767366       1.51381110
Pt       0.78941189       4.80853504      -0.69278693
Pt       1.94855023       0.84319558       5.52957563
12
Lattice="4.417473316192627 0.0 0.0015301178209483624 -2.2247411507731267 3.817212450370882 -0.002285508904606104 0.0 0.0 12.425925254821777" Properties=species:S:1:pos:R:3 sample_seed=87028 sample_index_within_seed=0 benchmark_method=GBSA-TCL dft_verified=F pbc="T T T"
Zn       2.30472485       0.80653177       4.50328760
Zn       0.09521263       2.07603083      10.71314355
Zn       2.30560314       0.80590079       8.68124935
Zn       0.09408296       2.07590091       2.47262150
Gd       2.29845168       3.34876458       6.59514067
Pt       2.29504284       3.35027011       3.49439793
Pt       0.09300478       2.07730428       5.08479535
Pt       2.30578422       0.80461472       1.88514362
Pt       2.30547053       0.80523381      11.30389482
Gd       2.29320109       3.35132763       0.38166495
Pt       2.29728035       3.34933635       9.70280045
Pt       0.09490325       2.07741258       8.10163098
8
Lattice="4.167009353637695 0.0 -0.003509694943204522 -2.083009713762636 6.406156933351685 -0.011425010859966278 0.0 0.0 9.694415092468262" Properties=species:S:1:pos:R:3 sample_seed=87029 sample_index_within_seed=0 benchmark_method=GBSA-TCL dft_verified=F pbc="T T T"
Eu       0.77817720       3.79681164       0.59033206
Eu       0.77439913       0.25171707       2.39203248
Eu       2.85874894       1.12316915       9.02950484
Eu       2.85660157       1.12278855       5.44381152
Eu       0.77491680       3.79511819       4.18000258
Eu      -1.30784830       4.67062547       7.23430220
Pt       2.86052851       2.42917698       2.38590897
Pt       0.77334313       2.49340440       7.23413936
4
Lattice="4.620453357696533 0.0 -0.03327411040663719 -2.298749608565231 3.603397055347925 -1.6989660263061523 0.0 0.0 5.9825029373168945" Properties=species:S:1:pos:R:3 sample_seed=87030 sample_index_within_seed=0 benchmark_method=GBSA-TCL dft_verified=F pbc="T T T"
Pt      -1.61465997       3.44948886      -0.72932791
Hg       0.69268550       3.44549976       2.24218247
Pt       0.69347395       2.26025921      -0.15294886
Pt       2.99900186       1.02999224       0.34354979
11
Lattice="3.6629092693328857 0.0 -0.6945970058441162 -0.3017783584716474 5.295334820143043 -1.5533843040466309 0.0 0.0 10.057344436645508" Properties=species:S:1:pos:R:3 sample_seed=87031 sample_index_within_seed=0 benchmark_method=GBSA-TCL dft_verified=F pbc="T T T"
Gd       0.45997801       3.21277466       0.79763111
Gd       1.83730964       5.08050992       8.11043610
Gd       1.13596638       4.12894290       4.40212979
Gd       2.80808218       1.08663420       3.18607527
Gd       3.50362357       1.71770692       6.86158778
O        1.73085790       0.46958054       7.52078142
O        0.03835479       3.70332870       8.63459580
O        0.85909694       2.35286890       2.93049482
O        3.17159585       0.05103979       5.09731192
O        0.28057483       1.19044606      -0.18762092
O        2.26601321       4.51208954       0.33123706
