8
Lattice="4.603460153455934 -0.0006035775537830173 -0.0004034815023070077 0.0006427810993215126 4.65012980355694 0.0016910634103854195 0.0003778174235975373 -0.0015741858346585234 4.604622086760736" Properties=species:S:1:pos:R:3:forces:R:3 structure_index=0 total_energy=-56.74000549316406 stress="-0.0671975389122963 0.00044852832797914743 -0.0002464821154717356 0.00044888482079841197 0.02876020409166813 0.001200878294184804 -0.00024649425176903605 0.0012017880799248815 -0.03456545248627663" pbc="T T T"
Eu       1.77383533       3.72184325       3.47291867       0.00521433      -0.00060138       0.00120760
Fe       4.07524570       1.39714532       3.47248365       0.00007841       0.00207074       0.00181979
Na       4.07517476       3.72203996       1.17115449      -0.00011436       0.00151752      -0.00249060
O        1.77351719       3.72541068       1.17064554       0.00026577       0.00687283       0.00054915
O        1.77095343       1.39714366       3.47280826       0.00872316      -0.00379406      -0.00295844
Fe       1.77154903       1.39498395       1.16932943      -0.00140976      -0.00131158       0.00214603
O        4.07579842       1.39766056       1.16889776      -0.00229228      -0.00421398       0.00157102
O        4.07634924       3.72030531       3.47328709      -0.01046529      -0.00054009      -0.00184461
