20
Lattice="5.425527742520721 0.0317013918280185 1.6104759039767267 2.4494664677278997 4.841845498167049 1.6012933414497095 0.04323258272803692 0.041576060701400276 9.782892550586737" Properties=species:S:1:pos:R:3:forces:R:3 structure_index=0 total_energy=-173.45835876464844 stress="-0.0010284899035468698 4.886889655608684e-05 0.0002516645472496748 4.6282599214464426e-05 -0.0008197666029445827 -1.1052455192839261e-05 0.00025116969482041895 -7.62351055527688e-06 -0.0017564045265316963" pbc="T T T"
Eu       6.27946518       2.82287262       6.98919322       0.01229361       0.00789090      -0.04232550
Eu       4.16860033       1.51995771       4.18270645       0.00303116      -0.00116524      -0.00735879
Fe       1.75099094       3.34143552       2.34801043       0.00736869       0.00249408      -0.03009276
W        5.24229493       2.18574071      10.49340999      -0.00254267       0.00000347       0.01037882
Eu       2.87087958       4.05068666       8.50619376       0.00805770       0.00861072      -0.03650075
O        5.23822684       0.73020964       6.51624092      -0.00759825       0.00686562      -0.00299468
Eu       2.17336734       0.26800888       0.98718729       0.00008963      -0.00259347      -0.00151667
Fe       3.74081389       4.57933455       5.56459965       0.00458178       0.00259142      -0.01607059
O        1.25114612       1.22007137       7.97049732      -0.00937164      -0.01362395       0.01143181
Mn       3.26858177       0.96369495       7.22767541       0.00154704       0.00309279      -0.00116986
O        2.53648191       4.34052308       3.89344011       0.00349541      -0.00226440       0.00967574
O        3.75783422       3.09995212      11.41842208       0.00458217       0.00012875       0.02166516
O        5.29151039       3.62711758       4.58131226      -0.00371686      -0.00373720       0.00839315
O        3.07324010       2.82190589       6.24285179      -0.00226040      -0.01178819       0.00233380
O        4.08863263       2.00983255       8.94436161      -0.01247150       0.00970510       0.01308942
O        6.39409149       2.40350904      12.08051702      -0.00558901      -0.01614729       0.01523453
O        1.94612652       1.55687382       3.23139693      -0.00079635      -0.00815512       0.00200416
O        4.93145094       4.77886074       7.16173955       0.01022474       0.00562860       0.00041923
O        4.61715690       0.43242291      11.15422814      -0.01709595       0.00706363       0.02018654
O        5.89597856       3.89962270       9.86094723       0.00617042       0.00540054       0.02321675
