7
Lattice="4.2563886642456055 0.0 0.11965213716030121 0.19275219645456215 7.1035388355409745 -1.7103601694107056 0.0 0.0 7.296811580657959" Properties=species:S:1:pos:R:3 pbc="T T T"
Pb       1.59508389       4.97392302       0.20445940
Pr       3.65807673       2.56177254       3.32671182
Cl       3.77359454       6.84897909       0.85841461
Cl       1.49578350       1.43378419       4.67011136
Cl       1.52216486       2.23780271       1.14063291
Cl       1.58577705       4.72612504       3.08168064
Cl       3.68909351       4.00331063       5.86324328
