7
Lattice="4.1490632944934625 -0.054283779561595705 0.06084680136683462 0.1264082830480549 7.279691866391771 -1.9053450021880114 -0.10718121460168316 -0.142821291738664 7.523413898609949" Properties=species:S:1:pos:R:3:forces:R:3 structure_index=0 total_energy=-29.871267318725586 stress="-0.004764179699122906 0.012430930510163307 0.011629607528448105 0.012430772185325623 0.00832459144294262 0.0024407540913671255 0.011629492975771427 0.002440495416522026 0.0018928236095234752" pbc="T T T"
Pb       1.48851810       5.01568380       0.14014155       0.00087923      -0.02027269       0.02667277
Pr       3.48544488       2.52635361       3.29881078       0.00198490       0.00062741       0.00445853
Cl       3.58481686       6.94437144       0.62851741      -0.00616076       0.00209334      -0.00173927
Cl       1.37533566       1.42372340       4.72048564      -0.00087230      -0.00927807      -0.00506124
Cl       1.43696050       2.19237193       1.16006770      -0.00023533      -0.01171445      -0.03299566
Cl       1.44228372       4.68738349       3.11851241       0.00005425       0.03566372       0.00800684
Cl       3.46855763       3.95658767       5.89459126       0.00435002       0.00288073       0.00065804
