15
Lattice="4.74195671081543 0.0 1.3114516735076904 0.9458834515857144 5.621760945970701 3.278501033782959 0.0 0.0 6.219607353210449" Properties=species:S:1:pos:R:3 pbc="T T T"
Fe       1.18615447       2.31970718       2.11169693
Fe       3.40990945       0.24825543       2.77870683
Fe       2.48967702       0.60035293       6.72852243
Fe       2.59444660       5.14753738       8.00584636
Fe       0.27106275       1.43680986       6.08071312
Fe       1.54299252       4.41345100       3.96124800
Fe       4.34572074       1.12957249       5.02557737
B        5.29070248       5.24447654       9.84563762
Fe       2.11706016       1.92905815       4.36011598
Fe       4.03643440       3.79780707       4.17047413
P        1.16561775       0.02091770       2.41453057
Rh       5.15932261       4.13026009       7.87637195
Rh       2.99968601       3.10059307       6.44874866
P        3.45731043       2.54399845       2.49786220
B        5.03612920       2.95837231       5.84350861
