9
Lattice="4.261847496032715 0.0 -0.00463819270953536 0.0006088532975712361 6.318634957543389 -3.5447301864624023 0.0 0.0 7.393773555755615" Properties=species:S:1:pos:R:3 pbc="T T T"
Cu       3.90640796       4.14278074       3.53798693
Eu       1.77446211       2.07698035       2.90253646
Eu       1.77870583       5.73311139       2.02976665
Eu       1.77657474       4.87426452      -1.76515334
Al       3.90694787       3.58495645       0.67626597
Cu       3.90841658       6.28642830      -0.05256441
Al       3.90789583       2.10802439       5.44894707
Al       1.77594117       2.08745303      -0.19811118
Cu       3.90714360       0.72075924       0.55133175
