20
Lattice="5.69270658493042 0.0 -0.10105722397565842 6.437560475496924e-05 5.902391433364757 -0.0033361201640218496 0.0 0.0 8.206355094909668" Properties=species:S:1:pos:R:3 pbc="T T T"
O        1.09878603       0.02984344       7.64738058
Eu       0.21186301       4.31247751       0.96888719
Eu       2.86479654       1.36470420       0.93361472
Nd       0.11428552       1.67458438       3.02936234
Nd       2.96169578       4.62702902       7.08079022
Mn       0.11513010       1.67560762       7.13397339
Mn       2.96139005       4.62588775       2.97762853
O        4.82311291       3.32142819       6.51847527
Eu       3.05707501       1.98725687       5.02643134
Eu       0.01805097       4.93948023       5.08623756
O        1.38092222       5.69125481       2.54068239
O        3.94580137       0.36905087       3.49529427
O        4.22900648       0.61000529       6.59745217
O        4.53889848       3.55888231       3.41526720
O        5.16062350       1.94351019       0.68740906
O        1.69207974       2.74277190       7.56952418
O        2.31108330       4.36165491       4.83872566
O        1.97713829       2.97926593       2.46392947
O        3.61158757       4.89212626       1.11862033
O        0.76084963       1.41024441       5.27159043
