20
Lattice="5.293330192565918 0.0 -0.48299339413642883 0.7744448152399168 5.365258882426888 -0.10962332040071487 0.0 0.0 8.813763618469238" Properties=species:S:1:pos:R:3 pbc="T T T"
Cu       4.44384139       5.14260594       7.22523749
Ca       5.34141749       1.79974138       3.04423710
Mn       0.89738212       1.09777132       6.63162283
Mn       2.69345507       3.50977951       2.24473212
O        1.85547662       1.79809451       4.92923918
O        2.12484030       5.29106876       2.77453532
Mn       4.44264307       2.44487380      -0.07675786
O        5.27430429       3.00780571       6.97612225
Mn       2.70396086       0.12577674       4.35248506
Mn       1.86638475       0.84622808       0.91336843
O        2.65823101       2.00236690       7.75727135
Mn       1.73440500       3.75241017       8.05709912
O        0.18831802       0.23262497       8.43434000
Mn       3.53981000       2.75433589       5.66255009
O        4.37868460       0.96036813       5.03232092
O        0.96467159       2.64947899       1.39495399
O        4.03966946       3.69853208       3.71946102
O        3.31467425       4.33219628       0.30538141
O        3.54912417       1.81726745       1.62128289
O        2.83015453       4.63145730       6.25001577
