17
Lattice="2.580524444580078 0.0 0.0006803481956012547 0.004069850165299709 6.790543290274023 -0.012261745519936085 0.0 0.0 9.423677444458008" Properties=species:S:1:pos:R:3 pbc="T T T"
Mn       1.93499717       3.75464287       0.76997379
Mn       1.93196087       0.48655228       2.52326937
Mn       0.64552599       4.96318981       2.86235542
Co       1.93168871       0.23238415       8.52424351
Mn       0.64736548       3.91924373       5.45173497
Mn       0.64639886       4.83664335       7.88592769
Mn       0.64489231       1.68984706       0.48665979
Co       0.64675147       6.01959645       0.80517307
Mn       1.93309221       2.44681937       7.55391222
Mn       0.64301158       0.19355170       6.46077061
Mn       0.64449306       2.64275338       2.74714999
C        1.94046674       5.33507179       9.20613433
Mn       1.93456590       1.72007950       4.75601768
Co       1.93630866       5.94081308       4.62190628
C        1.93301001       3.78507263       3.83070122
C        0.63883398       2.07689596       6.12198432
C        1.93585620       5.28930937       6.40896538
