8
Lattice="3.6398546076449656 0.0013873850892499185 0.0009903470820401233 -1.8215321300494116 3.1516004471442978 -0.0009995222443508693 0.0046718338690949 0.003737203533728079 12.519159002468735" Properties=species:S:1:pos:R:3:forces:R:3 structure_index=0 total_energy=-77.17111206054688 stress="0.002723603043705225 -0.0005910472245886922 0.00023862491070758551 -0.0005907457089051604 0.00367625686340034 0.0013540619984269142 0.00023871008306741714 0.0013545284746214747 0.014914204366505146" pbc="T T T"
Eu       0.96698890       2.59404222       8.23453267      -0.00185225       0.00017841      -0.01121713
Eu       0.96469636       0.49169430       1.87342702      -0.00071389      -0.00072812       0.01368362
Eu       0.96258839       2.59337629       4.59457126       0.00081941       0.00027864       0.02809721
N       -0.85579753       1.54184126       3.22879546      -0.00216442      -0.00036172       0.02140682
Eu      -0.85442463       1.54304344      10.96467137       0.00325142       0.00084474      -0.00541899
N        0.96705891       0.49288274       9.62329132       0.00071326       0.00010948      -0.02656152
F        0.96232853       2.59257172       0.17097497       0.00002719      -0.00075148      -0.01551108
F        0.96422368       0.49156388       6.31428907      -0.00008077       0.00043003      -0.00447907
