20
Lattice="3.5357606428189876 0.01462676219216459 0.5163659998228507 1.2543099989043365 7.5201902977957635 3.281013513279429 0.06680205999393879 0.1005706757270256 11.665431432016069" Properties=species:S:1:pos:R:3:forces:R:3 structure_index=0 total_energy=-197.25148010253906 stress="-0.0004640271363314241 -0.0006093719857744873 -0.0005010660388506949 -0.0006083092303015292 -0.00040428011561743915 0.00011973612708970904 -0.000499967485666275 0.00011984443699475378 -0.0005358786438591778" pbc="T T T"
Gd       3.01076149       1.57851795       1.84773350       0.00842179       0.00113857       0.00007139
O        3.34695922       5.47607708       8.42410463      -0.01422926      -0.01711275      -0.02823664
O        0.43144849       0.30818041       5.39289333      -0.00745070      -0.00604185       0.00007220
Eu       3.28465647       4.66245618      12.21770576      -0.00253169      -0.00065367       0.00240263
Eu       1.83381938       0.20523612       9.97234870       0.01094395      -0.00129384       0.00122463
O        2.90914610       5.44739099       2.69233095      -0.00063374      -0.00011501       0.00247081
H        3.86091862       4.25899042       6.82232046       0.01364547       0.01587728       0.04417033
O        3.70823024       7.12229586       5.98416991      -0.01509900       0.00627306      -0.00962748
O        2.08156933       1.93736566       8.13072023       0.00162740      -0.00330861       0.00108176
Eu       1.01510623       4.24913073       3.41036584      -0.00362120      -0.00057873       0.00432681
Gd       1.77371324       6.30848690       6.90096821      -0.00934376       0.00254208      -0.00881895
O        1.59018238       6.49560137      11.72055310       0.01688976       0.00172558       0.00045317
Eu       3.67641100       3.18931128       9.29643233      -0.00284843      -0.00581634       0.00386758
Ni       1.92326890       6.10584687       9.82878514       0.00980910       0.00044819      -0.00155027
O        1.69029308       4.18366324      10.30928586      -0.00457503       0.00498471      -0.00355254
O        1.20356124       3.99862293       5.93904568      -0.00904991      -0.00446409      -0.00398740
O        3.44678524       1.39421765      11.21696102       0.00732848       0.00439674      -0.00299105
Gd       2.14205151       1.66584704       5.89812033      -0.00992085       0.00299758      -0.00026266
O        1.38365268       3.04174277      13.07868710       0.00848806       0.00316325      -0.00067241
O        2.79192684       2.59444437       3.98102480       0.00214970      -0.00416234      -0.00044212
