8
Lattice="4.563108444213867 0.0 -0.000776981352828443 0.0012547007038330466 4.710029911768637 0.003297362709417939 0.0 0.0 4.594222068786621" Properties=species:S:1:pos:R:3 pbc="T T T"
Eu       1.75555766       3.77094929       3.46614040
Fe       4.03912373       1.41650396       3.46457636
Na       4.04039275       3.77070898       1.16972427
O        1.75782478       3.77248747       1.16926199
O        1.75393783       1.41740597       3.46578981
Fe       1.75645398       1.41395484       1.16657081
O        4.04041594       1.41758677       1.16625907
O        4.04488033       3.77023649       3.46644755
