10
Lattice="3.984110116958618 0.0 -0.03215118497610092 -1.9377785584077287 3.337199503875057 -0.7618409395217896 0.0 0.0 9.939664840698242" Properties=species:S:1:pos:R:3 pbc="T T T"
O       -1.07961496       2.99486576       5.71314622
Eu       1.33373005       3.10154139       0.07638257
H        1.25675588       0.38297576       8.56680507
Eu      -0.63878259       2.66459607       3.18566787
N        1.81940160       2.41002515       5.85803053
O        1.30558819       0.64786915       9.51262808
O        3.30771723       0.34100262       3.21179408
O       -0.66476409       2.14223291       0.98393718
O        1.28521960       1.84087019       4.79297925
O        1.26264056       2.34534793       6.96025579
