9
Lattice="4.643907070159912 0.0 0.03680257871747017 0.08313651892836878 8.525732019258827 -2.9360761642456055 0.0 0.0 9.252063751220703" Properties=species:S:1:pos:R:3 pbc="T T T"
Cs       1.48386743       4.18048783       4.86961217
Cl       3.79867168       3.65303425       1.95912014
Cl       1.50665682       7.07625478       3.06185536
Cl       3.82627030       6.76048915       6.67863566
Cl       3.77730979       1.43186522       4.73726743
Cs       1.49656576       5.11644966      -0.00783439
Cs       1.45062711       0.81132975       2.07821051
Sr       3.76359254       0.00987561       7.15040858
Cl       1.45678082       1.72874142       7.97376021
