12
Lattice="6.162160132334531 0.011577751076932558 -0.016033787436361656 -0.009294725027989816 7.500851211543311 -0.0032431166097402417 0.040844082002955744 0.019265600027039465 10.801070443643477" Properties=species:S:1:pos:R:3:forces:R:3 structure_index=0 total_energy=-111.08467864990234 stress="-0.007471189368516207 0.0017190366052091122 0.003974877763539553 0.0017190497601404786 -0.004565851762890816 0.0018355677602812648 0.003974916413426399 0.001835603965446353 0.0047740694135427475" pbc="T T T"
Eu       3.95882275       3.43567864       2.36774088      -0.00365092      -0.00359301       0.01303095
Eu       0.88667949       7.18457356       7.58655777       0.00500383      -0.00113477      -0.01645287
Nd       0.82476549       5.29991265       4.07084996       0.02450829      -0.00195457       0.04116198
Nd       4.02583358       1.54540562       5.87757935      -0.02205245       0.00330558      -0.03582805
Eu       0.89172917       3.40944672       7.58604907       0.00436315       0.00122638      -0.01596787
Eu       0.84492339       1.53672026       0.50516051      -0.00130201       0.00498861       0.00354080
Eu       3.95627942       1.55366390       9.40923895       0.00938483      -0.00114018      -0.01073909
Eu       3.91036690       5.29991449       5.83192398       0.01302797      -0.00299205      -0.02946891
Eu       4.00505809       5.30310265       9.44529512       0.00278195       0.00065907      -0.00102690
Eu       0.94277538       1.54845144       4.11981416      -0.01695159       0.00062467       0.02876190
Eu       3.95288642       7.15904812       2.36618292      -0.00321340       0.00434445       0.01201147
Eu       0.89560348       5.29164488       0.54076531      -0.01189964      -0.00433417       0.01097658
