20
Lattice="4.920495510101318 0.0 1.5338932275772095 2.1283866169386547 5.057975947276937 2.221356153488159 0.0 0.0 8.92131519317627" Properties=species:S:1:pos:R:3 pbc="T T T"
Fe       4.96331173       3.03187159       7.60067880
Fe       3.32141892       4.90973517       4.02381710
Fe       3.04986622       1.47408058       4.66146479
Mg       2.04197329       1.90181351       8.05321039
Fe       5.87412005       2.58535216       4.24924151
Fe       0.18804486       0.41215842       5.09935598
Fe       3.46359501       3.72260066       9.89812597
O        2.45373106       3.19489960       3.90247845
O        3.07684901       3.76518124       8.01751629
Fe       4.09877303       0.98606439      10.16179751
O        5.08639695       2.78638610       9.68823529
O        2.39596425       2.14853507      10.20564847
O        4.58039707       1.30380487       3.25297462
O        5.22852875       4.37565814       3.71639090
O        3.92221023       1.05615182       8.12485537
O        1.56986869       1.67052180       6.05703664
O        4.51655413       2.36424832       5.77008546
O        0.99968040       0.20378226       8.68039112
O        1.55799266       0.63319816       3.56972969
O        5.79217762       4.80374998       7.67127091
