12
Lattice="4.453604221343994 0.0 -0.0006133968709036708 0.0006203172161523313 4.7446603369522835 -0.028442127630114555 0.0 0.0 8.151126861572266" Properties=species:S:1:pos:R:3 pbc="T T T"
Fe       1.32711033       0.88380569       1.22335561
Pt       1.32752752       3.23218040       8.05203577
Pt       3.55363720       4.08607817       3.99267659
Fe       3.55409654       4.02593740       6.64915979
Pt       3.55489722       1.64883775       7.93700974
Pt       3.55578220       4.06464702       1.23081991
Fe       1.32927031       3.24291846       2.58238767
Pt       3.55539366       1.69580948       2.62151021
Fe       1.32968354       0.81189201       3.87867504
Pt       1.32789443       0.80318992       6.57851722
Fe       3.55477419       1.67628810       5.26446682
Pt       1.32735647       3.16140847       5.21517321
