14
Lattice="6.209767529891744 -0.06590258775150007 -0.24850489812665935 2.143134287840684 6.123925683642701 -0.16247676449386408 0.08120110286561183 -0.039277957879276834 6.9712897743238145" Properties=species:S:1:pos:R:3:forces:R:3 structure_index=0 total_energy=-87.06329345703125 stress="-0.009061483666300774 0.0011950257467105985 -0.0017206904012709856 0.001195182790979743 -0.009193742647767067 0.00047389729297719896 -0.0017212822567671537 0.000474287400720641 -0.012655792757868767" pbc="T T T"
Mg       2.92252141       5.00072570       0.80421984       0.02751918       0.00523566      -0.00044076
S        4.76224666       3.67031790       6.57722114       0.03837574       0.02080199       0.00596781
Mg       2.76113685       1.76972216       0.23331973      -0.02526063       0.03778290       0.00121477
Ti       5.26052795       3.03246350       1.87028234      -0.01887451       0.00328834       0.00761420
S        4.47511066       1.78878285       3.77044821       0.00038236      -0.00469637       0.01549567
Ti       0.08984190       0.29567071       3.71870681      -0.01427370      -0.02289703       0.00108624
Ti       6.07059316       3.71754845       4.38713070       0.01459166       0.01416054      -0.00735535
Cr       2.82828253       3.54788515       4.02327707       0.00389768      -0.01035005      -0.01651540
S        1.45601980       1.87169500       5.07968727      -0.01424929      -0.00069623      -0.01571812
S        7.86205652       5.12314004       5.42063323       0.02630527      -0.01028304      -0.00049030
Ti       5.59595910       1.42177030       6.01086433      -0.01408482      -0.00504555       0.01026049
S        4.37205016       5.08188465       3.08734308       0.01021391       0.00960051       0.00194770
S        0.60008608       1.30753220       1.42057949      -0.03748594      -0.01439007      -0.00098905
S        7.35999005       4.29136214       2.22796172       0.00294304      -0.02251147      -0.00207789
