12
Lattice="4.90242862701416 0.0 -0.0028159262146800756 -0.00715593073841121 7.990528240297418 -0.018311165273189545 0.0 0.0 9.719879150390625" Properties=species:S:1:pos:R:3 pbc="T T T"
Eu       1.93067990       4.10435704       6.40765853
Eu       4.37665478       7.73630683       1.54411571
Eu       1.93377664       0.11052502       7.98216333
Eu       4.38030019       3.74627664       3.11444550
Eu       1.93338610       1.08829184       4.07201108
Au       4.37940737       5.94638502       8.50497277
Eu       1.92834530       5.09073395       0.59276646
Eu       4.37825283       6.75695821       5.44788043
Eu       4.38058829       2.75998854       8.93206068
Au       1.92726386       5.89752655       3.65498867
Au       1.92812135       1.89955245       1.00830859
Au       4.38625837       1.94840885       5.86696323
