13
Lattice="4.595756139511542 0.0013176882088622734 1.8469215299081014 2.2836208756973013 6.066640195667588 0.9546189033201208 0.03558427188427164 0.03285148758456202 6.552204989931989" Properties=species:S:1:pos:R:3:forces:R:3 structure_index=0 total_energy=-101.45703887939453 stress="-0.00566902058199048 0.0009059564908966422 -0.0008901244145818055 0.0009057813440449536 -0.0035793182905763388 -0.00219864584505558 -0.0008902521221898496 -0.0021993499249219894 -0.004044069908559322" pbc="T T T"
Tb       1.44974112       0.82454536       1.39178013      -0.01179081      -0.03432020       0.03062188
Dy       2.86488839       4.55953939       4.50899993      -0.00631020      -0.01552320       0.01498103
Fe       2.20104561       2.77860072       6.16189044      -0.01169606      -0.03124527       0.02810420
Fe       5.24074742       2.91378641       5.24115824       0.00196234      -0.00850429      -0.01320864
Fe       6.48131068       5.74401092       8.79262702       0.00415555       0.01542691      -0.01615240
Fe       5.51384105       5.50331875       4.55749981      -0.00666426      -0.02142629       0.02133973
Fe       4.30605227       2.26155310       7.56538040       0.00702599       0.01613796      -0.01579700
Fe       3.30706238       1.93359500       3.41074968       0.00617106       0.01977491      -0.01373439
Fe       4.54835739       4.76678807       6.96029545      -0.00204368       0.01223572       0.00870684
Fe       2.58673215       3.80204315       1.81276618       0.00546545       0.01236303      -0.00910199
Fe       3.71979334       0.89165943       5.63372222       0.01107252       0.01222885      -0.01246660
Fe       4.93268765       3.80250105       2.75553016      -0.00045241       0.01315149      -0.01203077
Fe       1.47041476       0.89150248       4.72885610       0.00310459       0.00970046      -0.01126184
