10
Lattice="5.3771779388927845 -0.04586183784145373 -1.0265001321799043 -2.752022719028988 4.368715563370039 -1.6002759617100661 0.08142290683703172 0.057375071514436556 5.732772950606499" Properties=species:S:1:pos:R:3:forces:R:3 structure_index=0 total_energy=-59.35675811767578 stress="-0.0372752845287323 0.0030311911832541227 -0.0077537246979773045 0.0030309215653687716 -0.03692937269806862 -0.0027740199584513903 -0.007752556819468737 -0.0027745242696255445 -0.028419535607099533" pbc="T T T"
Zn       0.83966608       0.53307741       1.70746836       0.00116716       0.01113678      -0.01315041
Fe       3.60995453       2.15010888       0.48151189      -0.02378816      -0.01959506      -0.00276002
O        0.35205787       2.67196266       1.93869504      -0.01254717       0.00981043       0.02082137
O        3.51105398       2.82521467      -1.55270375      -0.00585360      -0.00364356       0.00973289
Fe       4.56015767       1.33045022       3.43618503       0.03626356       0.02301046      -0.00610742
Fe       1.85062570       3.00012657       3.22964394       0.00876474      -0.01538696      -0.02313650
O        2.56099781       4.04549722       0.85128037      -0.00727940      -0.00938753       0.01904313
O        2.84723529       0.84235793       1.98298088      -0.00871391       0.01376325      -0.00002576
Ge       0.83583548       3.42376253       0.18910500       0.00021406       0.00843334       0.00869989
O        4.54283299       0.53555502      -0.43576958       0.01177265      -0.01814133      -0.01311757
