10
Lattice="4.685973003871457 -0.003701094174919593 2.4751976251648715 1.6921934137595271 4.369436648809466 2.476924241808524 -0.03299193315857471 -0.025470213153279905 5.736372977524276" Properties=species:S:1:pos:R:3:forces:R:3 structure_index=0 total_energy=-83.88578033447266 stress="0.052941858768463135 0.0012996450532227755 -0.001038060523569584 0.0013017586898058653 0.054177265614271164 -0.0020937281660735607 -0.0010380150051787496 -0.0020947849843651056 0.05621084198355675" pbc="T T T"
Mn       2.14727489       1.49415488       4.63026037      -0.00091097      -0.00050429      -0.00036031
Gd       3.48305364       2.40698311       7.77756717       0.00302243       0.00364368      -0.01342717
O        4.09181691       1.83068677       4.33820555       0.00477242       0.00637424      -0.02315702
Mn       5.22672637       3.60363507       4.47466362      -0.00916052      -0.01155639       0.03795828
O        2.15406960       0.57586217       2.85946812       0.00527865       0.01348681      -0.01944748
Fe       0.16556705       0.13747974       2.70560949      -0.00847681      -0.00456089       0.03065258
O        4.98411931       0.86486833       7.12430864      -0.03109604       0.03274536      -0.00194477
O        1.93439654       2.67731401       6.16926239       0.03141754       0.00146821       0.01753879
O        2.83553710      -0.00559524       5.67281079      -0.00821176      -0.04292619      -0.01056305
O        1.81723942       3.18668773       3.62689476       0.01336566       0.00182950      -0.01724929
