15
Lattice="4.74195671081543 0.0 1.3114516735076904 0.9458834515857144 5.621760945970701 3.278501033782959 0.0 0.0 6.219607353210449" Properties=species:S:1:pos:R:3 pbc="T T T"
Fe       1.17879188       2.32842185       2.10532651
Fe       3.41591810       0.24185240       2.78129648
Fe       2.48498756       0.59899976       6.71968243
Fe       2.60211200       5.15305982       8.01039319
Fe       0.27362041       1.43810799       6.07747502
Fe       1.53637525       4.41735781       3.96800225
Fe       4.34089622       1.12702030       5.02977190
B        5.28845319       5.23710603       9.84175656
Fe       2.12537490       1.93717048       4.37000823
Fe       4.04378397       3.79390160       4.16205580
P        1.16613808       0.01716370       2.41026337
Rh       5.16022850       4.12735582       7.87578292
Rh       2.99367780       3.08555610       6.44442931
P        3.45710427       2.54892192       2.50198380
B        5.03476445       2.96917405       5.85133299
