11
Lattice="3.3514204025268555 0.0 0.06364911794662476 -1.6965358458031687 2.8786300123020556 0.0016309834318235517 0.0 0.0 32.19880294799805" Properties=species:S:1:pos:R:3 pbc="T T T"
I       -1.03773526       2.87374119      24.62125783
Se       2.07667867       0.77759809      31.12927140
Se       0.52147270       1.81648601      27.99993771
W        2.59311649       1.19356318      12.70774509
Mo      -1.23099546       2.74146610      29.44014783
S        0.93431059       2.17480125      11.13732923
S        0.89131709       2.13030514      14.14138285
Se       0.74207698       2.00451147      21.55407657
W        0.81433125       2.07351431      18.50038233
Mo       0.78862204       0.11708104      20.19638741
S        0.84786427       0.16381737      17.31196800
