12
Lattice="3.45729923248291 0.0 0.005294643808156252 -3.9192974593742596e-05 4.930272579037334 0.0016571953892707825 0.0 0.0 7.403578758239746" Properties=species:S:1:pos:R:3 pbc="T T T"
Mn       3.20096372       1.81047684       5.24397980
Mn       1.47474972       3.06030748       4.02678498
Mn       3.20053882       1.83515463       2.79742080
Mn       1.47156430       0.56794631       6.49711584
Mn       3.20081765       4.29457594       2.77537356
Co       1.47191567       0.59237633       4.02591269
Co       3.20045076       4.27970038       5.24752867
Mn       1.47223174       3.03360818       6.47893367
Co       1.47218774       3.06085554       1.55765355
Co       3.20231079       4.27620013       0.31703766
Co       1.47325674       0.59731928       1.55379103
Co       3.20186361       1.81320716       0.31058880
