8
Lattice="3.617504119873047 0.0 -0.0003554999711923301 -1.8115389836738696 3.128285298091653 -0.0012615056475624442 0.0 0.0 12.571166038513184" Properties=species:S:1:pos:R:3 pbc="T T T"
Eu       0.95733267       2.57153917       8.27246046
Eu       0.95794205       0.48718701       1.88606680
Eu       0.95379780       2.57177672       4.60077399
N       -0.85189850       1.52951920       3.23905587
Eu      -0.85435368       1.52818471      11.00568267
N        0.95731038       0.48592570       9.66854914
F        0.95536880       2.57250913       0.17249996
F        0.95577174       0.48551013       6.34126610
