10
Lattice="4.285129547119141 0.0 0.031114846467971802 -2.1364364690558664 4.993531291576553 -1.5008512735366821 0.0 0.0 9.015669822692871" Properties=species:S:1:pos:R:3 pbc="T T T"
Ge      -0.74249503       1.87462823       2.14831491
Ge       3.52268268       0.00548427       5.72841227
Ge      -0.74274819       2.61865035       6.14130301
Dy       1.39126117       1.68668300       4.36643300
Dy       1.39640993       3.93182443       1.47780710
Pt      -0.73803002       2.87235252      -0.37569744
Dy       1.41094077       4.57187219       7.12081671
Pt      -0.75621699       3.78052062       3.96294618
Ge       1.40395010       1.59748546       8.03733294
Pt       1.40709086       0.69615521       1.47957091
