10
Lattice="4.349213388519983 -0.002868371519280116 0.020404546625671097 -2.167842805144617 5.036796464180608 -1.5194781655252063 -0.0235713986863584 -0.0007685016775040187 9.158558841997333" Properties=species:S:1:pos:R:3:forces:R:3 structure_index=0 total_energy=-59.36996841430664 stress="0.002422098070383072 -5.676051659975201e-05 0.00046440429287031293 -5.66418566450011e-05 0.003443964058533311 0.0019072182476520538 0.00046445525367744267 0.0019073550356552005 0.0011420502560213208" pbc="T T T"
Ge      -0.76109570       1.95241048       2.07435345      -0.00163280       0.02343656       0.01131774
Ge       3.56820067      -0.07415713       5.75080957       0.00270212      -0.00814907       0.00359305
Ge      -0.77756198       2.51987526       6.27025582      -0.00099534       0.01002915      -0.01760330
Dy       1.40181134       1.65724323       4.39895411       0.00174779      -0.02579704       0.00839679
Dy       1.41668862       3.98801004       1.49641266      -0.00324757      -0.00015892      -0.02136828
Pt      -0.74979696       2.97209725      -0.39940045       0.00150066       0.01626319      -0.01112560
Dy       1.40471136       4.66319148       7.10794673      -0.00180124      -0.03592992       0.00865979
Pt      -0.77403235       3.76271174       3.99058439       0.00498866       0.00704629       0.01721197
Ge       1.40117732       1.72228979       8.37784945      -0.00245638      -0.01374151       0.01583364
Pt       1.41522434       0.66093287       1.63305350      -0.00080592       0.02700126      -0.01491576
