8
Lattice="4.126384735107422 0.0 -0.6641170978546143 0.05094219396050653 4.369308104452636 -0.009798810817301273 0.0 0.0 12.607047080993652" Properties=species:S:1:pos:R:3 pbc="T T T"
Cu       0.35211576       2.44072159      12.16699791
Mn       1.34299354       2.44217766       5.38472522
Se       0.52268685       0.26051225       0.73887165
Se       3.14495250       2.43940355       3.52796376
Eu       4.04370699       0.25667841       9.04117028
In       2.85171671       0.25327039       1.99967049
Se       2.17671833       2.44427100      10.37190781
Te       1.56566371       0.25432590       6.85514425
