8
Lattice="4.064151602313508 -0.024973936404753014 -0.6664748079887187 0.024515024523129075 4.266818200390187 -0.004954267962937664 0.025855506353724928 0.014137473281251388 12.812452919574097" Properties=species:S:1:pos:R:3:forces:R:3 structure_index=0 total_energy=-45.24275207519531 stress="0.0004382093611638993 -0.0016687100287526846 0.002498286310583353 -0.0016689148033037782 -0.004325319081544876 0.0001860112970462069 0.0024981407914310694 0.00018591394473332912 0.01420862227678299" pbc="T T T"
Cu       0.34621271       2.39706913      12.28473743      -0.00178673       0.00005276      -0.01596643
Mn       1.31598098       2.38170945       5.47487420       0.00199713      -0.00025152       0.01497841
Se       0.50585174       0.24957755       0.68682768      -0.00412209      -0.00096963      -0.03139311
Se       3.09884898       2.36784137       3.62625837      -0.00336029       0.00000624      -0.00983012
Eu       4.00960863       0.23817106       9.24098117      -0.00077153      -0.00019877      -0.00285117
In       2.80985015       0.23393866       2.01413811       0.00461254       0.00138102       0.01038570
Se       2.15214620       2.38432542      10.57049476      -0.00117749      -0.00039608      -0.00891154
Te       1.56537667       0.24857846       7.04911165       0.00460847       0.00037606       0.04358827
