12
Lattice="3.866727590560913 0.0 -0.0011322619393467903 -1.9408731617905783 6.499956128920551 0.452981173992157 0.0 0.0 6.313254356384277" Properties=species:S:1:pos:R:3:forces:R:3 sample_seed=87000 sample_index_within_seed=0 benchmark_method=C0 dft_verified=F structure_index=0 total_energy=-104.12095642089844 stress="-0.3261925280094147 -0.1050921157002449 0.02173389308154583 -0.10509128868579865 -0.7661627531051636 -0.08998021483421326 0.021733812987804413 -0.08998262882232666 -0.7247914671897888" pbc="T T T"
Eu      -0.95567749       4.59093232       2.89916340      -0.00070951      -0.00973397       0.01035428
Eu       0.98089964       2.71124956       0.28100037       0.00033176      -0.22106579       0.05261683
Eu      -0.95855305       5.94752935       5.88936285       0.00267873       0.27451062       0.12116532
Fe       2.91471041       1.74004069       4.18725208       0.00766429      -0.06057198      -0.17284092
O        0.98214110       1.67382757       4.39257441       0.00215528       0.01069933       0.05495048
O        2.91113845       2.35628241       2.23221581       0.01298000       0.13896675      -0.15707664
O        0.98137784       6.14956547       3.97544944      -0.01935353      -0.26763898       0.07903683
O        2.91947597       0.97285699       6.05467553      -0.01968857       0.02359538      -0.03658685
O       -0.95453126       3.66819180       5.14068521       0.00519329       0.05180413       0.03902800
Fe       2.91677976       0.41345390       1.65195293       0.00990198       0.08176935       0.08952671
O        0.98411421       0.26413301       1.42323519      -0.00131112       0.10572943      -0.08663020
O        0.97744758       4.81661818       1.33222697       0.00015743      -0.12806459       0.00645640
10
Lattice="3.8270516395568848 0.0 -0.0018880063435062766 -1.9260730824253187 6.232616158765572 -1.9194916486740112 0.0 0.0 6.256379127502441" Properties=species:S:1:pos:R:3:forces:R:3 sample_seed=87001 sample_index_within_seed=0 benchmark_method=C0 dft_verified=F structure_index=0 total_energy=-96.32977294921875 stress="0.48260247707366943 -0.14103107154369354 0.0001350668171653524 -0.14103427529335022 1.781279444694519 1.0735077857971191 0.00013694512017536908 1.0735105276107788 1.3610496520996094" pbc="T T T"
N        0.35236857       2.54064551       1.13335996      -0.00195242       0.06260126      -0.91780496
C        2.26959509       0.57799986       4.34508881      -0.02368361       0.07686986       0.11551775
Eu       0.34804348       3.04399996       4.93066663       0.02113501       0.53036523       0.03562064
Eu       2.26273514       4.34287835       1.83874988      -0.02748583      -0.46184477      -0.03777635
Eu       2.27185709       0.58080389       1.22144588      -0.00312594      -0.04818742      -0.01891822
N        2.26004481       4.85293844      -0.61694296       0.00106022      -0.04766048       0.36124918
N        2.26530032       1.52596753       5.15400031      -0.00352519      -0.86292136      -0.73163319
N        2.25847652       4.88802706       4.35821759       0.00501364      -0.20336398      -0.50181323
N        0.34290866       5.86004967       1.62334944       0.04071292       0.79402542       0.61555040
N        0.35250114       2.50190048       2.40002926      -0.00814875       0.16011748       1.08000755
9
Lattice="4.838178634643555 0.0 0.0020190109498798847 0.004140374195680074 6.746819179401037 -3.8876819610595703 0.0 0.0 7.788491725921631" Properties=species:S:1:pos:R:3:forces:R:3 sample_seed=87002 sample_index_within_seed=0 benchmark_method=C0 dft_verified=F structure_index=0 total_energy=-41.157474517822266 stress="0.03323172777891159 0.006884403061121702 0.004606918431818485 0.006884394213557243 0.17722731828689575 -0.0011429092846810818 0.004606949631124735 -0.0011427742429077625 0.16615985333919525" pbc="T T T"
Li       4.57976282       3.86494626       3.74106891      -0.00051175       0.00278727      -0.01578607
Cd       4.57773084       1.62145820       1.62325667       0.00067404       0.00241840       0.00108046
Cd       2.15958832       3.86821165       5.52433168       0.00102387       0.00017367      -0.00832117
Eu       2.16065487       3.87289057       1.03390516      -0.00026498      -0.00372355       0.06136857
Li       4.58062427       5.40872907      -1.37389185      -0.00063054       0.01473767       0.00677066
Eu       2.15791424       1.00962686       3.86434757       0.00045709      -0.04722078      -0.02521194
Eu       2.16240562       6.73282424       3.87490817      -0.00031566       0.04266883      -0.03622405
Li       4.57829867       2.32494619       6.40606450      -0.00011852      -0.01354066       0.00993183
Cd       4.58092450       6.11930189       1.62624824      -0.00031354       0.00169916       0.00639169
14
Lattice="5.552590370178223 0.0 0.9230141639709473 -0.11169680212287117 4.890225492436221 1.9476866722106934 0.0 0.0 7.207651615142822" Properties=species:S:1:pos:R:3:forces:R:3 sample_seed=87003 sample_index_within_seed=0 benchmark_method=C0 dft_verified=F structure_index=0 total_energy=-85.99952697753906 stress="-2.1132049560546875 0.1302044689655304 -0.4098711609840393 0.13020455837249756 -0.2870459258556366 -0.2252105325460434 -0.4098711609840393 -0.2252105325460434 -1.8037890195846558" pbc="T T T"
Fe       1.58928461       0.69189271       2.49844417      -0.14977954      -0.12363786      -0.17298765
Fe       4.68897437       1.40543918       8.39525246       0.57639593      -0.24279034      -0.28129822
Rh       0.08845497       4.21226947       7.53369769       0.02579474      -0.17296553      -0.36362347
O        5.20252186       2.74194389       7.12017660       0.00178782       0.15513697      -0.28229517
O        0.92983266       0.37641182       7.24946394      -0.05994197       0.39269343      -0.12648529
Pb       4.91306324       2.87480958       4.67761184      -0.14527300       0.09832449      -0.01929767
Pb       1.98249086       1.98297854       5.75478911       0.15648952      -0.08221085       0.16153200
O        3.83223681       4.78544945       9.30713792      -0.06043175      -0.10133809      -0.06163318
O        0.38882322       0.82665892       4.13822263      -0.05543667       0.08320542      -0.08789609
O        2.03595819       3.85545637       7.23122187       0.19745469      -0.01157691      -0.32004410
O        1.61895983       3.63372334       4.00892236       0.13500881       0.05506876       0.23687178
O        3.18105998       1.87623997       2.18732766      -0.48697537       0.12523451       0.28109497
Rh       2.15953530       3.65461722       2.01692425       0.13305008      -0.22392920       0.64468288
O        0.39948210       2.54370911       1.63303545      -0.26814327       0.04878521       0.39137936
6
Lattice="4.117345333099365 0.0 2.3744776248931885 1.37263817158373 3.883342350465573 2.379059314727783 0.0 0.0 4.7548980712890625" Properties=species:S:1:pos:R:3:forces:R:3 sample_seed=87004 sample_index_within_seed=0 benchmark_method=C0 dft_verified=F structure_index=0 total_energy=-47.56188201904297 stress="-1.3519301414489746 0.0021847824100404978 -0.0384775809943676 0.002184242708608508 -1.3078080415725708 0.032926399260759354 -0.03847791254520416 0.03292616829276085 -1.3402661085128784" pbc="T T T"
Fe       1.95572695       3.88296946       3.71707148      -0.02296238      -0.01527692      -0.03879543
Fe       1.26799459       1.93881894       2.52638277       0.00184724       0.04735591       0.00053987
Fe       1.95481279       3.88234427       6.09171468      -0.01946312      -0.01259092       0.03894815
Pt       4.01403099       2.42757690       7.28040315      -0.00339917      -0.00672598      -0.00447272
Rh       2.64116712       1.45526074       4.90135803      -0.00117333       0.00044757       0.00346064
Fe       4.01151272       3.88259703       4.90311463       0.04515075      -0.01320959       0.00031950
10
Lattice="5.03409481048584 0.0 -1.5747698545455933 -3.0811034008735305 4.273277788579502 -0.025494283065199852 0.0 0.0 7.762224197387695" Properties=species:S:1:pos:R:3:forces:R:3 sample_seed=87005 sample_index_within_seed=0 benchmark_method=C0 dft_verified=F structure_index=0 total_energy=-91.25050354003906 stress="1.4911953210830688 -1.060971975326538 -1.0730310678482056 -1.0609722137451172 0.8977689743041992 0.9713354706764221 -1.073030948638916 0.9713334441184998 1.9647034406661987" pbc="T T T"
Gd       2.31200189       1.81477877       5.64712155       0.05883557      -0.09317923      -0.05822229
Co      -0.16340394       1.76422729       2.48097100       0.09939122      -0.03399424       0.04132517
Co      -0.60773072       3.08946620       5.49193472       0.08741182       0.01197195       0.22455192
Co      -1.38708758       4.16573378       3.50709470       0.01688355      -0.04843627       0.12485182
Co       1.14716358       4.24454783      -1.07595212      -0.00844176      -0.09939316      -0.16294375
Co       1.88400397       3.09693854       0.83079593      -0.11102357       0.07678778       0.02312282
Gd       4.48793017       0.07911398       3.66418952      -0.28860795      -0.01354608      -0.54027396
Gd       2.11858080       0.10854607       0.81295583       0.09644362       0.16929369       0.55040145
Co       0.12118773       1.99279924      -0.23573418      -0.00990570      -0.03923459      -0.22123164
Co       2.65675074       1.99582937       2.75295432       0.05901317       0.06973012       0.01841860
10
Lattice="3.1658644676208496 0.0 0.3902823030948639 0.009282458872696528 3.3028052542960773 0.0034363027662038803 0.0 0.0 12.883852005004883" Properties=species:S:1:pos:R:3:forces:R:3 sample_seed=87006 sample_index_within_seed=0 benchmark_method=C0 dft_verified=F structure_index=0 total_energy=-57.099365234375 stress="1.9403488636016846 0.008570552803575993 0.33754026889801025 0.008570412173867226 -0.03620041906833649 0.020271018147468567 0.33754050731658936 0.020271550863981247 -0.6586016416549683" pbc="T T T"
Zn       0.30674692       1.27462073       6.08767218      -0.05670686       0.00256916       0.53387731
O        2.03783989       1.27693386       5.09238943       0.04631405      -0.00963663      -0.56163502
Fe       0.88577265       1.27509261       1.37960394      -0.00653707       0.00813384       0.23740084
Zn       2.18127972       2.92778449       3.95144018      -0.08517571       0.00615041       0.34183273
Fe       1.58362027       2.92601489       8.81303285      -0.01135871      -0.00356259      -0.06180895
O        2.63613574       1.28031921      13.14953702      -0.04724818       0.00611833       0.10832773
O        0.73942538       2.92900819       2.54395704       0.07643042      -0.00809224      -0.10350418
O        0.17009180       2.92565424       7.23061148      -0.00508050       0.00082856       0.10056099
O        3.01009657       2.92435318      10.25766146       0.13091058      -0.00257764      -0.92449200
Fe       2.77623883       2.93333660      12.06194775      -0.04154802       0.00006878       0.32944030
20
Lattice="5.69270658493042 0.0 -0.10105722397565842 6.437560475496924e-05 5.902391433364757 -0.0033361201640218496 0.0 0.0 8.206355094909668" Properties=species:S:1:pos:R:3:forces:R:3 sample_seed=87007 sample_index_within_seed=0 benchmark_method=C0 dft_verified=F structure_index=0 total_energy=-176.5915985107422 stress="-0.6402410864830017 0.006334492936730385 -0.07626720517873764 0.006333436816930771 -0.8566356897354126 -0.015226409770548344 -0.07626720517873764 -0.015226554125547409 -0.43956246972084045" pbc="T T T"
O        1.09878603       0.02984344       7.64738058      -0.04237407       0.06322697      -0.00804009
Eu       0.21186301       4.31247751       0.96888719       0.03338009      -0.02403776       0.00828374
Eu       2.86479654       1.36470420       0.93361472      -0.02698595      -0.04456730       0.00579141
Nd       0.11428552       1.67458438       3.02936234       0.00252376      -0.00107196       0.00737421
Nd       2.96169578       4.62702902       7.08079022      -0.00300117       0.00428937       0.00695177
Mn       0.11513010       1.67560762       7.13397339      -0.01129960       0.00172296      -0.01450918
Mn       2.96139005       4.62588775       2.97762853      -0.00878811       0.00369720       0.00460134
O        4.82311291       3.32142819       6.51847527       0.04582533      -0.05866694       0.00831602
Eu       3.05707501       1.98725687       5.02643134       0.03145256       0.03308429      -0.01609062
Eu       0.01805097       4.93948023       5.08623756      -0.03282254       0.03063165      -0.00578038
O        1.38092222       5.69125481       2.54068239       0.06916338      -0.05875480      -0.00995649
O        3.94580137       0.36905087       3.49529427      -0.05530456      -0.06030923      -0.00302383
O        4.22900648       0.61000529       6.59745217       0.04492030       0.04979154      -0.00279161
O        4.53889848       3.55888231       3.41526720      -0.05724996       0.06165361       0.01610152
O        5.16062350       1.94351019       0.68740906       0.02427078       0.08639222      -0.09337291
O        1.69207974       2.74277190       7.56952418      -0.03681973      -0.05291176       0.00406855
O        2.31108330       4.36165491       4.83872566       0.04773891      -0.10541874      -0.07238105
O        1.97713829       2.97926593       2.46392947       0.04910973       0.06821761       0.00921283
O        3.61158757       4.89212626       1.11862033      -0.04870417       0.10193890       0.05860767
O        0.76084963       1.41024441       5.27159043      -0.02503498      -0.09890768       0.09663758
6
Lattice="2.835676431655884 0.0 0.0008179304422810674 0.0005771638299991355 3.8205244105209624 -1.2647595405578613 0.0 0.0 6.38875675201416" Properties=species:S:1:pos:R:3:forces:R:3 sample_seed=87008 sample_index_within_seed=0 benchmark_method=C0 dft_verified=F structure_index=0 total_energy=-48.21639633178711 stress="-1.1540124416351318 0.013365800492465496 0.023899614810943604 0.013366080820560455 -0.9550960659980774 -0.021537965163588524 0.023900004103779793 -0.021539930254220963 -1.1298460960388184" pbc="T T T"
Fe       0.78493748       1.80742078       1.01514133       0.00358031      -0.01390168      -0.05088163
Fe       2.20379265       2.44100744       2.92432299      -0.00262898       0.01472517       0.03738608
Fe       0.78590931       3.08210035       4.86239812      -0.00110882       0.01058640      -0.01812734
Fe       2.20326811       1.16398234       5.46588555      -0.00013563      -0.01313141      -0.00748505
Co       2.20341218       3.71309543       0.36660837      -0.00001190      -0.01471388      -0.02338064
Co       0.78541301       0.53419293       3.56569825       0.00030509       0.01643545       0.06248876
4
Lattice="4.334066390991211 0.0 -2.38261079788208 -1.2638600325805103 4.145302450963376 -2.3829827308654785 0.0 0.0 5.109652996063232" Properties=species:S:1:pos:R:3:forces:R:3 sample_seed=87009 sample_index_within_seed=0 benchmark_method=C0 dft_verified=F structure_index=0 total_energy=-22.212139129638672 stress="2.02777099609375 0.012346661649644375 -0.12271946668624878 0.012346609495580196 1.996387004852295 -0.12615540623664856 -0.12271950393915176 -0.12615549564361572 1.5924906730651855" pbc="T T T"
Eu       1.39354219       3.39574372      -2.09142545       0.00225165      -0.01943091       0.00591659
Au      -0.14188236       1.31825122       0.29205777      -0.00020412       0.00264035      -0.00088015
Au       2.79826777       2.35032880       0.46303876       0.03278306      -0.01350372       0.00071689
Au       1.25361851       0.28718843       2.84922432      -0.03483062       0.03029427      -0.00575333
16
Lattice="5.335163593292236 0.0 3.0868875980377197 1.7934471529643476 5.052369302671022 3.08272385597229 0.0 0.0 6.187392711639404" Properties=species:S:1:pos:R:3:forces:R:3 sample_seed=87010 sample_index_within_seed=0 benchmark_method=C0 dft_verified=F structure_index=0 total_energy=-103.5453109741211 stress="-0.39893704652786255 0.036460816860198975 -0.1044069454073906 0.036461129784584045 -0.19847643375396729 -0.13199517130851746 -0.10440970212221146 -0.1319958120584488 -0.2809831500053406" pbc="T T T"
Mn       3.63538527       1.01732778       4.99513237      -0.00017775      -0.01069905      -0.00439417
Mg       4.53204893       3.54288944       6.53578039      -0.00127751       0.00102186       0.01098626
O        6.38598799       4.77887874       9.62381418      -0.00878000       0.01006959       0.00674499
Ni       1.86381172       3.54156982       8.08699050      -0.00304136       0.01429392      -0.00299985
Ni       0.96721204       1.01601629       3.45155385      -0.00793064       0.00099765       0.00623027
O        5.44503081       2.30843898       8.01987795       0.02015057      -0.08606346       0.13360330
Mn       4.53087397       3.54322732       9.63017543       0.00600401      -0.00635233      -0.00836371
Mn       0.96942825       1.01686258       6.54594567      -0.02393335       0.00023991      -0.00961148
Mn       3.63386856       1.01661693       8.08908663       0.02052612      -0.00120662      -0.00008179
O        6.30529119       4.73028965       6.53068741       0.09677839       0.13013783       0.01100710
O        3.61875327       4.77745975       5.05241259      -0.03065521       0.07949244      -0.12724552
O        2.67566316       2.30496151       3.44747756       0.01592773      -0.00166973       0.00260963
O        5.44471304       2.30965350       5.05498552       0.02222657      -0.09739456      -0.13842270
O        2.75778930       2.35505588       6.54134969      -0.09250164      -0.12402138      -0.00614504
Ni       1.86381796       3.54237026       4.99289909      -0.00540460       0.00332956      -0.00283448
O        3.61623833       4.77661263       8.01844390      -0.00791168       0.08782440       0.12891696
9
Lattice="4.261847496032715 0.0 -0.00463819270953536 0.0006088532975712361 6.318634957543389 -3.5447301864624023 0.0 0.0 7.393773555755615" Properties=species:S:1:pos:R:3:forces:R:3 sample_seed=87011 sample_index_within_seed=0 benchmark_method=C0 dft_verified=F structure_index=0 total_energy=-56.231536865234375 stress="1.073914647102356 0.0051241349428892136 -0.024247223511338234 0.005123885814100504 1.8629776239395142 -0.061808984726667404 -0.024247266352176666 -0.06180891767144203 1.6367782354354858" pbc="T T T"
Cu       3.90640796       4.14278074       3.53798693       0.00272633      -0.01585996       0.00744976
Eu       1.77446211       2.07698035       2.90253646       0.00330358      -0.01527434       0.12841704
Eu       1.77870583       5.73311139       2.02976665      -0.00375940      -0.06922866      -0.02006511
Eu       1.77657474       4.87426452      -1.76515334      -0.00037288       0.09777606      -0.05746252
Al       3.90694787       3.58495645       0.67626597       0.00178175      -0.01308331      -0.02846994
Cu       3.90841658       6.28642830      -0.05256441      -0.00178746      -0.02889529      -0.00164036
Al       3.90789583       2.10802439       5.44894707      -0.00440365       0.02104947       0.02460561
Al       1.77594117       2.08745303      -0.19811118       0.00259977      -0.11139512       0.01642608
Cu       3.90714360       0.72075924       0.55133175      -0.00008807       0.13491121      -0.06926057
8
Lattice="2.8635330200195312 0.0 -0.00024590420071035624 -0.0031489556021331603 2.86395972705083 7.385850040009245e-06 0.0 0.0 11.4542236328125" Properties=species:S:1:pos:R:3:forces:R:3 sample_seed=87012 sample_index_within_seed=0 benchmark_method=C0 dft_verified=F structure_index=0 total_energy=-60.95003128051758 stress="3.9023330211639404 -0.10940822958946228 -0.010350986383855343 -0.10940862447023392 3.9151031970977783 -0.005281610880047083 -0.010351663455367088 -0.0052810003980994225 4.190209865570068" pbc="T T T"
Co       0.22948530       1.90965888       8.20029727      -0.00028055       0.00340348      -0.05248858
Co       0.23171048       1.91060834       5.35949367      -0.00856332      -0.00058107      -0.01018178
Fe       1.66274792       0.47796183       9.64003683       0.00064701      -0.00404467       0.04873332
Co       1.66311868       0.47916018       1.06161759       0.00014595      -0.00928007      -0.09557131
Fe       1.66247606       0.47870632       6.75499764       0.00925758      -0.00295506      -0.07944377
Co       0.22958552       1.90882174      11.01403746       0.00005448       0.00937534       0.15918787
Co       1.66522510       0.47848483       3.88578103      -0.00701115      -0.00084371      -0.08283989
Fe       0.22987664       1.90998185       2.45553374       0.00575000       0.00492578       0.11260397
8
Lattice="4.814712047576904 0.0 -1.0630310773849487 -3.433469172465607 3.979844439536814 -1.4707235097885132 0.0 0.0 4.779082298278809" Properties=species:S:1:pos:R:3:forces:R:3 sample_seed=87013 sample_index_within_seed=0 benchmark_method=C0 dft_verified=F structure_index=0 total_energy=-63.29847717285156 stress="0.9534490704536438 0.7671577334403992 0.1925642043352127 0.7671562433242798 0.48253703117370605 -0.38519057631492615 0.1925641894340515 -0.38519051671028137 -0.056944362819194794" pbc="T T T"
Fe       1.90708712       1.29425309       2.64040991      -0.12943964      -0.08120685      -0.06984339
Fe      -1.14125226       3.19517639      -0.09952646       0.05055583      -0.08218347       0.09078814
Fe       2.89974432       1.17955762       0.09264099       0.03460892      -0.02334435      -0.04001945
Fe       0.26035139       3.25276609       1.99985393      -0.05264685       0.00887373       0.02456238
Si       0.45328578       1.18304661       0.70700749      -0.01039387      -0.11416925       0.13258967
Fe       1.25653511       3.13062650      -0.55239630       0.09038894       0.11809459       0.08525670
Si      -2.11277887       3.24860553       2.44740705       0.03590962       0.11292480      -0.12738919
Fe      -0.51478635       1.23634813       3.25167367      -0.01898300       0.06101084      -0.09594496
12
Lattice="3.45729923248291 0.0 0.005294643808156252 -3.9192974593742596e-05 4.930272579037334 0.0016571953892707825 0.0 0.0 7.403578758239746" Properties=species:S:1:pos:R:3:forces:R:3 sample_seed=87014 sample_index_within_seed=0 benchmark_method=C0 dft_verified=F structure_index=0 total_energy=-96.71328735351562 stress="-1.096533179283142 -0.001537530799396336 0.1373143047094345 -0.0015374906361103058 -1.2155420780181885 -0.17076817154884338 0.13731390237808228 -0.17076833546161652 -1.3113714456558228" pbc="T T T"
Mn       3.20096372       1.81047684       5.24397980      -0.00178410       0.03171375       0.02505669
Mn       1.47474972       3.06030748       4.02678498      -0.00834107      -0.03466760      -0.01713548
Mn       3.20053882       1.83515463       2.79742080       0.00319735      -0.03066761       0.01071731
Mn       1.47156430       0.56794631       6.49711584       0.00600933       0.04568030      -0.12853973
Mn       3.20081765       4.29457594       2.77537356       0.00133723      -0.01448149       0.13163136
Co       1.47191567       0.59237633       4.02591269       0.00523490      -0.04927948       0.01755878
Co       3.20045076       4.27970038       5.24752867       0.00239656       0.03704455      -0.01556548
Mn       1.47223174       3.03360818       6.47893367       0.00173745       0.03912845      -0.02444678
Co       1.47218774       3.06085554       1.55765355       0.00274908      -0.02724692      -0.01509952
Co       3.20231079       4.27620013       0.31703766      -0.00481868      -0.00605981      -0.00200776
Co       1.47325674       0.59731928       1.55379103      -0.00497172      -0.00460531      -0.00380814
Co       3.20186361       1.81320716       0.31058880      -0.00274636       0.01344115       0.02163873
4
Lattice="5.249369144439697 0.0 -0.005934442393481731 -0.00447001836533952 5.03004400000402 -0.002799284877255559 0.0 0.0 5.030117988586426" Properties=species:S:1:pos:R:3:forces:R:3 sample_seed=87015 sample_index_within_seed=0 benchmark_method=C0 dft_verified=F structure_index=0 total_energy=-31.911014556884766 stress="0.3537277579307556 -0.014370506629347801 -0.017957251518964767 -0.014370529912412167 0.636118471622467 -0.007314787246286869 -0.017957381904125214 -0.007314981427043676 0.6363638043403625" pbc="T T T"
Y        4.81616312       4.18652605       2.19758402       0.00152610      -0.00120202      -0.00000817
Eu       2.19210431       4.18495922       4.71597198      -0.00057753       0.00132987      -0.00058137
Eu       2.19415355       1.67071868       2.20233654      -0.00026712      -0.00013426      -0.00094781
Pb       4.81921875       1.67054104       4.71307535      -0.00068146       0.00000640       0.00153738
14
Lattice="4.9273529052734375 0.0 -0.9538182616233826 -1.7305665498330998 4.79659797988534 -2.380343198776245 0.0 0.0 6.6423020362854" Properties=species:S:1:pos:R:3:forces:R:3 sample_seed=87016 sample_index_within_seed=0 benchmark_method=C0 dft_verified=F structure_index=0 total_energy=-94.96490478515625 stress="0.5147265791893005 0.053470954298973083 -0.14659255743026733 0.05347103253006935 0.8521714210510254 -0.07801838964223862 -0.1465921849012375 -0.0780181884765625 0.7418079972267151" pbc="T T T"
Ni       2.61533699       0.90624387      -0.63236052       0.01494601      -0.02386705      -0.05093487
Fe      -0.43677459       3.66770343       3.17457717      -0.04475275      -0.02298798      -0.03056997
Fe       3.50898578       2.23147905       4.11988825       0.00399449       0.03336617      -0.01073918
Fe       2.38825167       4.31726599      -1.64519974       0.03267904       0.01714777       0.01345566
Ni      -0.93846662       2.95881786       0.78768570       0.02440258      -0.01722686      -0.01562212
Fe       4.60709494       0.17750593       3.13955616       0.01655708      -0.01220784       0.05319832
Ni       1.52107590       2.94765463       0.28124412       0.00581932      -0.00353539       0.03393183
Fe       0.69129200       1.58629861       2.18275296      -0.09304390       0.00370834      -0.01617583
Ni       1.03546090       2.24325196       4.55600803       0.07941680       0.03557543       0.06184731
Ni       3.13691686       1.59998048       1.71576281      -0.09818912      -0.04429267      -0.01111268
Ni       2.00914915       3.62846058       2.67099250      -0.03605900       0.05359209      -0.06126606
Ni       2.15868220       0.20008855       3.62330907       0.04688662      -0.00816313       0.05627248
Ni       0.16133650       0.88953854      -0.17223414      -0.03569235      -0.01710529      -0.03438494
Ni      -0.05348592       4.30562302      -1.10011999       0.08303525       0.00599641       0.01209999
12
Lattice="4.828766345977783 0.0 1.4504526853561401 2.1954832158817643 4.299725322594274 1.450147032737732 0.0 0.0 8.767505645751953" Properties=species:S:1:pos:R:3:forces:R:3 sample_seed=87017 sample_index_within_seed=0 benchmark_method=C0 dft_verified=F structure_index=0 total_energy=-86.09008026123047 stress="0.24816839396953583 -0.002256582258269191 -0.06657378375530243 -0.002256903564557433 0.21931761503219604 -0.04040908068418503 -0.066573366522789 -0.04040970653295517 0.4741744101047516" pbc="T T T"
Ni       1.31323390       1.35368652       1.19255562       0.05699882       0.03703176      -0.18447864
Fe       4.40162785       0.28788375       4.06576943       0.00090294       0.00608996       0.10673293
Ni       6.00003451       4.22319571       3.12110739      -0.06351689      -0.03758189       0.18819620
Dy       2.66423768       2.18081685       5.46597192      -0.01958487      -0.01063203       0.02840710
Fe       5.49705421       2.43751691       4.78932090      -0.01916045      -0.06372871       0.08955939
Fe       0.71580171       0.98928001       7.56573786      -0.00916548      -0.00893816      -0.10719943
Fe       1.98387225       0.28735770       3.34043672      -0.05758587       0.01204935       0.08155037
Fe       4.97346951       0.63911966       6.53899773      -0.00105017      -0.00178366       0.01134621
Dy       4.64818758       3.39552654       7.62175968       0.01641539       0.01054347      -0.06237507
Fe       1.81462353       3.13982906       8.29075359       0.02334139       0.06411234      -0.07684845
Fe       3.13137568       0.98859150       8.29151667       0.07000700      -0.00620654      -0.08088158
Dy       3.65523074       2.78818028       2.15687165       0.00239834      -0.00095592       0.00599098
16
Lattice="6.488311290740967 0.0 2.679917097091675 1.9125368509170912 7.948603648736608 1.954172968864441 0.0 0.0 9.046907424926758" Properties=species:S:1:pos:R:3:forces:R:3 sample_seed=87018 sample_index_within_seed=0 benchmark_method=C0 dft_verified=F structure_index=0 total_energy=-151.76153564453125 stress="0.5689398050308228 -0.006553310435265303 0.06424438208341599 -0.006553486920893192 0.6955523490905762 -0.1523972600698471 0.0642443522810936 -0.1523972898721695 1.2407196760177612" pbc="T T T"
Eu       4.76367873       6.29839111      11.00869399      -0.00758679      -0.00253504       0.00877945
Eu       2.50855329       1.83251485       4.25829427       0.05659603      -0.02353503       0.05288127
P        0.08431403       0.33390069       3.68545405       0.00917058       0.00851290      -0.04077452
Eu       2.04772200       7.57222787       8.43003343       0.04517226       0.00227563       0.04558453
Eu       7.46733826       5.01723692       4.54227923      -0.02567865      -0.01301699      -0.01485109
Eu       5.11106736       2.81326205       6.76193672      -0.07361396       0.01981895      -0.05771530
Eu       6.05952510       6.79609607       7.73733179      -0.04396274       0.00636960      -0.05557202
Eu       3.80914247       2.32659176      10.03118826      -0.00049806      -0.00284500       0.00257417
Eu       6.52255285       1.04279900       3.55355027      -0.03525199       0.00853430       0.00923879
Eu       3.46651737       5.80517090       5.24529560       0.05491200      -0.02596485       0.02479463
P        6.00098501       7.59533666       4.52583968       0.12257405      -0.01861618      -0.06053368
P        2.56573837       1.02715736       7.46823337      -0.13008019       0.02715378       0.06407049
P        1.03943896       4.30827154       4.66294435       0.01199783       0.03392923      -0.02788337
Eu       1.10498150       3.61860651       7.45352512       0.02184722      -0.03115900       0.04756340
P        3.55270175       4.99968360       8.44540775      -0.17543662       0.02104432       0.04965196
P        5.02641684       3.61937331       3.54886568       0.16983898      -0.00996659      -0.04780868
4
Lattice="3.739257574081421 0.0 2.16060471534729 1.24502796654906 3.5267957616878007 2.1642558574676514 0.0 0.0 4.320091247558594" Properties=species:S:1:pos:R:3:forces:R:3 sample_seed=87019 sample_index_within_seed=0 benchmark_method=C0 dft_verified=F structure_index=0 total_energy=-36.347389221191406 stress="-3.012815237045288 0.004678566008806229 0.055417511612176895 0.004678794182837009 -2.965928554534912 0.05444961413741112 0.055416274815797806 0.054448630660772324 -2.96649432182312" pbc="T T T"
Mn       3.03682563       2.60430491       6.20883720       0.00462273      -0.00041764       0.00376973
Mn       0.54601908       0.84078973       1.88730510      -0.00388926       0.00033508      -0.00223286
Ir       1.79133784       1.72270855       4.04849838       0.00129272      -0.00156625      -0.00259421
Ir       4.28382657       3.48577135       4.05048655      -0.00202624       0.00164875       0.00105734
4
Lattice="4.842860221862793 0.0 -0.021386368200182915 -2.4306122541183868 3.428694621148232 -2.421372652053833 0.0 0.0 4.842447280883789" Properties=species:S:1:pos:R:3:forces:R:3 sample_seed=87020 sample_index_within_seed=0 benchmark_method=C0 dft_verified=F structure_index=0 total_energy=-19.51472282409668 stress="-0.8275312781333923 -0.11956533044576645 -0.07923664152622223 -0.1195652112364769 -0.7772508263587952 -0.14849437773227692 -0.07923679053783417 -0.1484943926334381 -0.8180375695228577" pbc="T T T"
Zn       1.99929868       2.68446350       1.29237370      -0.00370571      -0.00344024       0.01546560
Zn      -0.42510746       2.68256841      -1.11289727       0.01705808       0.00151672      -0.01410917
Gd       2.00497458       0.96852969       3.72186445      -0.01317896       0.00408854      -0.00081978
Mg      -0.41779087       0.96949328       1.31137926      -0.00017341      -0.00216503      -0.00053665
5
Lattice="3.8515477180480957 0.0 -1.5087056159973145 -1.005133367086273 4.635292561998199 -2.564190626144409 0.0 0.0 5.6648969650268555" Properties=species:S:1:pos:R:3:forces:R:3 sample_seed=87021 sample_index_within_seed=0 benchmark_method=C0 dft_verified=F structure_index=0 total_energy=-41.53289794921875 stress="-0.26696667075157166 -0.041091445833444595 0.06656540930271149 -0.04109150543808937 0.024561434984207153 -0.10314967483282089 0.06656523793935776 -0.10314948856830597 -0.13921332359313965" pbc="T T T"
Eu       3.08719838       1.65717685       0.72532423       0.00129146       0.00040243       0.00436448
Mn       2.02053433       3.05602697      -1.99480367       0.00166589      -0.00261111       0.00278815
Eu       0.95361965       4.45422147       0.95236150      -0.00006354       0.00062551      -0.00531821
Ni       0.35010084       1.87902373      -0.58970997      -0.00902857       0.03886905      -0.01927307
Ni      -0.15898657       4.23236326      -1.88834134       0.00613478      -0.03728592       0.01743865
8
Lattice="3.139259099960327 0.0 0.0017665972700342536 0.0008936261947349336 5.144308012593324 -1.8148990869522095 0.0 0.0 5.44846248626709" Properties=species:S:1:pos:R:3:forces:R:3 sample_seed=87022 sample_index_within_seed=0 benchmark_method=C0 dft_verified=F structure_index=0 total_energy=-58.71921920776367 stress="-1.095229983329773 0.0037217051722109318 0.041639335453510284 0.0037219561636447906 -0.5762147307395935 0.05602654814720154 0.04164029657840729 0.056025248020887375 -0.8479557633399963" pbc="T T T"
Mn       2.21719003       4.42456674      -1.20205058      -0.00006132      -0.00240742      -0.00971373
Mg       0.64664923       1.85338780      -0.29545254       0.00236869      -0.00830710      -0.00634312
O        2.21665619       0.61141232       4.27696641      -0.00094237       0.04915877       0.03981214
Mn       0.64730002       4.42487429       1.52088690       0.00141721       0.00040117       0.00652104
O        2.21717182       3.09392614       0.58098672      -0.00180756      -0.05776170      -0.03121122
Mn       2.21656635       1.85219702       2.42896824       0.00080366       0.00069634       0.00446127
O        0.64697237       3.10987461       3.37458061       0.00176044      -0.00699457       0.02741074
O        0.64745398       0.59241132       1.48225442      -0.00353865       0.02521450      -0.03093729
8
Lattice="4.653505325317383 0.0 -0.8072497844696045 -2.4657935604227528 3.8920776913292623 -0.8229796886444092 0.0 0.0 4.701952934265137" Properties=species:S:1:pos:R:3:forces:R:3 sample_seed=87023 sample_index_within_seed=0 benchmark_method=C0 dft_verified=F structure_index=0 total_energy=-54.58332443237305 stress="-0.724922776222229 0.3030056357383728 0.012901128269731998 0.3030064105987549 -0.21727071702480316 -0.1705476939678192 0.012902095913887024 -0.17054736614227295 -0.7828317284584045" pbc="T T T"
Rh       2.93637426       0.07367239       1.39976919      -0.00538363       0.09947757      -0.08886255
Fe       0.54691819       1.27361157       1.40983947      -0.09515285      -0.15025583      -0.01285560
H        1.43062355       2.74439631       1.37599987       0.01788263      -0.02597813       0.01869141
Fe       2.97280043       2.61309762       0.59649643       0.16070040       0.00351120       0.07670172
Fe       1.56970087       3.39762571       2.97619249       0.05365390       0.14445144       0.06351446
Rh       1.63411291       0.64958032       3.76621448      -0.09520406      -0.07251403       0.03758476
Fe      -0.57521421       2.01691054       3.72247302       0.00425965      -0.00819008      -0.06982759
H        2.54016481       2.14559289      -1.01674677      -0.04075601       0.00949778      -0.02494679
4
Lattice="2.399075746536255 0.0 -0.7210503816604614 -0.21379428139613166 4.348023722287818 -0.7158076167106628 0.0 0.0 4.354846000671387" Properties=species:S:1:pos:R:3:forces:R:3 sample_seed=87024 sample_index_within_seed=0 benchmark_method=C0 dft_verified=F structure_index=0 total_energy=-28.56645393371582 stress="0.1377720832824707 -0.11956377327442169 0.1170816570520401 -0.11956381797790527 0.9602814316749573 -0.4394609034061432 0.11708173155784607 -0.4394611120223999 0.5005906224250793" pbc="T T T"
Fe       1.59443588       3.62897917       0.42795425      -0.02651270       0.02861522      -0.09457792
Ni       2.24342285       2.65919862       2.58877359       0.01335228      -0.03461397       0.04173507
Ni       0.50795273       1.48072222       1.16375844      -0.01519105       0.03301067      -0.04622239
Fe       1.15624946       0.51036649       3.32312115       0.02835148      -0.02701190       0.09906526
10
Lattice="5.235991477966309 0.0 0.015637369826436043 -2.50933373132753 3.92206330703427 -2.506190061569214 0.0 0.0 5.58335018157959" Properties=species:S:1:pos:R:3:forces:R:3 sample_seed=87025 sample_index_within_seed=0 benchmark_method=C0 dft_verified=F structure_index=0 total_energy=-68.10195922851562 stress="1.05007803440094 0.25106680393218994 -0.1781034618616104 0.2510667145252228 0.293162077665329 -0.11546289920806885 -0.17810283601284027 -0.11546313017606735 0.6119028925895691" pbc="T T T"
Mn       1.11216210       3.32011651      -1.95890328      -0.06752128      -0.10527828      -0.05615553
Ga      -1.50458322       3.32662032       0.91974655       0.10620470      -0.02332584       0.00733645
O        0.25176139       3.74042130       1.78631285       0.02624188      -0.00699764       0.01386400
Mn       1.08353230       1.61187994       1.13573876      -0.08140854       0.02099941      -0.04747197
Sn       3.68944028       1.69221680       4.06014671       0.13587719       0.01822883       0.01201845
O        2.11389073       2.63982835      -0.43890881      -0.06367657      -0.04237366       0.10145098
O       -0.60327919       3.60517790      -1.07646784      -0.02207351      -0.05690163       0.10363824
O       -0.92189509       1.44498189       0.46317295       0.07413653       0.04792731      -0.09506878
O        2.67255534       2.60949511       2.47950441       0.02274179       0.05648523       0.00686550
O        0.27923426       1.17234602       3.24540403      -0.13052237       0.09123600      -0.04647726
12
Lattice="4.453604221343994 0.0 -0.0006133968709036708 0.0006203172161523313 4.7446603369522835 -0.028442127630114555 0.0 0.0 8.151126861572266" Properties=species:S:1:pos:R:3:forces:R:3 sample_seed=87026 sample_index_within_seed=0 benchmark_method=C0 dft_verified=F structure_index=0 total_energy=-87.016357421875 stress="-0.815954327583313 0.007169122342020273 0.0013832618715241551 0.007168991025537252 -1.166769027709961 -0.27365660667419434 0.001382755464874208 -0.27365705370903015 -0.9996960759162903" pbc="T T T"
Fe       1.32711033       0.88380569       1.22335561       0.00411046       0.00218832      -0.00680957
Pt       1.32752752       3.23218040       8.05203577       0.00457202      -0.02434761      -0.02828249
Pt       3.55363720       4.08607817       3.99267659       0.01021812       0.02826744      -0.02118018
Fe       3.55409654       4.02593740       6.64915979       0.00208529      -0.10352759      -0.00928272
Pt       3.55489722       1.64883775       7.93700974      -0.00253067       0.00286831       0.00829189
Pt       3.55578220       4.06464702       1.23081991      -0.00410551       0.07826287      -0.01162074
Fe       1.32927031       3.24291846       2.58238767      -0.00407755       0.04953042      -0.05701534
Pt       3.55539366       1.69580948       2.62151021       0.00046335       0.00684499      -0.07620244
Fe       1.32968354       0.81189201       3.87867504      -0.00917513       0.08355235       0.05550457
Pt       1.32789443       0.80318992       6.57851722      -0.00143526       0.02435932      -0.02229562
Fe       3.55477419       1.67628810       5.26446682      -0.00127121      -0.05707644       0.10937285
Pt       1.32735647       3.16140847       5.21517321       0.00114604      -0.09092235       0.05951983
10
Lattice="4.467494010925293 0.0 -0.9413052797317505 -0.21321950316246327 4.588585172998622 -0.9937536716461182 0.0 0.0 11.120109558105469" Properties=species:S:1:pos:R:3:forces:R:3 sample_seed=87027 sample_index_within_seed=0 benchmark_method=C0 dft_verified=F structure_index=0 total_energy=-102.21515655517578 stress="0.5726179480552673 -0.05983659252524376 -0.4896352291107178 -0.059836339205503464 -1.2757470607757568 -0.06903137266635895 -0.48963427543640137 -0.06903137266635895 -1.4449526071548462" pbc="T T T"
Gd       3.53446042       2.52962925       2.01639215      -0.06083413      -0.04286355      -0.25152951
Gd       2.57064506       1.49909284       8.55475028       0.02718088       0.00255633       0.08226972
Gd       1.88113207       3.16285843       5.27843832       0.08956675       0.03999761       0.16542375
Pb       0.20954748       3.76304651       8.41738315      -0.02547579      -0.00737567      -0.08667407
Gd       4.21621314       0.85803195       5.25531802      -0.03907957      -0.00331966      -0.01116987
O        3.05144331       2.01260380      -0.28000664       0.00383880       0.00749289       0.01401291
Sm       2.94496849       4.30803251      -0.77654869       0.00344917      -0.00377278       0.01289626
O        3.99882330       3.03436302       4.22683819      -0.00450544       0.01067639       0.08258801
Pb       1.42684388       0.26106941       3.08375897       0.02445523       0.01547218       0.09204479
O        2.10745440       0.99224641       6.32924312      -0.01859581      -0.01886388      -0.09986205
12
Lattice="4.679840564727783 0.0 2.220018148422241 1.7945555612427593 4.329037937650115 2.213686227798462 0.0 0.0 6.03249979019165" Properties=species:S:1:pos:R:3:forces:R:3 sample_seed=87028 sample_index_within_seed=0 benchmark_method=C0 dft_verified=F structure_index=0 total_energy=-69.23958587646484 stress="-0.6023412942886353 -0.19982676208019257 -0.4265095293521881 -0.1998252421617508 -0.2593771517276764 -0.32676154375076294 -0.4265096187591553 -0.3267599046230316 -0.08726941794157028" pbc="T T T"
Mn       1.87091351       1.72111567       5.68078637       0.02212982       0.02621373      -0.09601988
Mn       2.97760809       2.45813063       3.34368765      -0.06411030      -0.01561407       0.08370534
O        5.46989916       2.09060141       5.95733980      -0.05630544       0.01579627      -0.01493751
Ni       4.40143783       0.28276686       6.39954206       0.02335988       0.02973990      -0.02596401
Ni       4.05659270       3.18498834       7.10005106       0.01333636      -0.00943898      -0.03732679
Ni       0.79009474       0.99620803       1.92448101      -0.00672112      -0.00325490       0.02835895
O        2.51282454       4.25131778       8.25111730      -0.09989576       0.01212522      -0.04028556
O        3.04498572       3.60224499       5.28452431       0.04144184       0.04060304       0.02539814
Ni       5.12333922       3.89607444       4.84374687      -0.00756894      -0.01802014       0.03939724
O        3.42760460       0.58597788       4.51317258       0.03934674      -0.09599376       0.00206921
O        2.92435556       1.33715363       7.52737061       0.05681813      -0.07484508       0.01829623
O        5.07480728       2.83754811       9.02395277       0.03816893       0.09268868       0.01730841
8
Lattice="3.7961151599884033 0.0 -0.003829947439953685 -1.8959132383288662 3.2851240350700315 0.0014340723864734173 0.0 0.0 11.449803352355957" Properties=species:S:1:pos:R:3:forces:R:3 sample_seed=87029 sample_index_within_seed=0 benchmark_method=C0 dft_verified=F structure_index=0 total_energy=-57.197059631347656 stress="2.734924077987671 0.054504647850990295 -0.07056311517953873 0.054503872990608215 2.67268967628479 -0.014192931354045868 -0.07056266069412231 -0.014193639159202576 1.6172959804534912" pbc="T T T"
Zn      -0.44649997       2.88328787       6.32064781      -0.00040370      -0.00060466       0.91139925
Eu       3.35247486       0.69366223       3.54854591      -0.02724169      -0.00586403       0.19703554
Zn      -0.44214631       2.88323442       0.37188398      -0.01167340      -0.00034002       0.00687875
O       -0.44646010       2.88405642       9.89393875       0.00627820      -0.00373745       0.00013274
O       -0.44618896       2.88330921       4.42131323       0.02672298       0.00577638      -0.52028644
Eu       1.45184376       1.78900790       8.96625489      -0.00489691       0.00359325      -0.58391732
S        1.45297977       1.78872025       1.35033653       0.00970534       0.00045978      -0.07867071
O        3.34945221       0.69211941       7.08792638       0.00150925       0.00071678       0.06742840
4
Lattice="3.944457530975342 0.0 -0.0005771274445578456 0.0033007468430236507 5.435543965458322 -0.0028001051396131516 0.0 0.0 5.435715198516846" Properties=species:S:1:pos:R:3:forces:R:3 sample_seed=87030 sample_index_within_seed=0 benchmark_method=C0 dft_verified=F structure_index=0 total_energy=-27.81148910522461 stress="-0.17784228920936584 0.0108405239880085 -0.002543272217735648 0.010840469039976597 0.2232963889837265 -0.003408242715522647 -0.002543297130614519 -0.003408218966796994 0.22439444065093994" pbc="T T T"
Zn       0.02711667       1.73104409       3.72690505      -0.00220061      -0.00008078       0.00018824
Eu       1.99834770       1.73154545       1.00887687       0.00118267      -0.00139958      -0.00042512
Eu       1.99730780       4.44864857       3.72490117       0.00507513       0.00058072      -0.00051319
Sn       0.02824048       4.44888832       1.00693069      -0.00405720       0.00089965       0.00075008
11
Lattice="3.140192747116089 0.0 0.003939794842153788 -1.5789932724788684 2.717529441877815 -0.005745330359786749 0.0 0.0 13.069356918334961" Properties=species:S:1:pos:R:3:forces:R:3 sample_seed=87031 sample_index_within_seed=0 benchmark_method=C0 dft_verified=F structure_index=0 total_energy=-64.49497985839844 stress="-1.3647621870040894 -0.1401112973690033 -0.08436935395002365 -0.14011132717132568 -1.5068714618682861 0.0466473363339901 -0.0843704342842102 0.04664778336882591 -3.854996681213379" pbc="T T T"
Li       0.06881593       1.61162355       4.81484358       0.00285967      -0.00057426       0.18026760
Fe       0.08077731       1.60061978      11.19612545      -0.03106841       0.01379669      -0.30570361
O        1.64329584       0.70330699       3.73889028      -0.00258523       0.00427638       0.10044506
Li       1.63926564       0.70611187       6.35660275       0.05629633      -0.03941073      -0.01526856
Li       1.64903856       0.69814331       0.31832583       0.00155638      -0.00002610      -0.27771008
O        1.63795208       2.51332780       6.37246102      -0.06695564       0.04345058      -0.20750712
Fe       1.63953944       2.51576734       2.61903122       0.00261118      -0.01161619       0.13771363
O        0.07368062       1.60646263       1.60324267      -0.00058006       0.00558806      -0.12148705
O        0.05168626       1.61686871       9.22862344       0.06322122      -0.03013492       0.42282763
Fe       1.63803728       2.51386022       8.35206621      -0.06518444       0.03088153      -0.56742722
O        1.64147491       2.51138294      12.07947636       0.03982886      -0.01623105       0.65384960
