4
Lattice="4.923412000551499 0.0001253186845843171 0.0027792742177243377 -0.000584049054164107 4.9361309934727045 -0.0009447298770208706 -0.0006474184901230028 0.0002346389844627639 4.922538153344275" Properties=species:S:1:pos:R:3:forces:R:3 structure_index=0 total_energy=-8.523298263549805 stress="0.030965788289904594 -0.0021575826685875654 0.010892313905060291 -0.0021580790635198355 0.04237109050154686 -0.0039269826374948025 0.010892053134739399 -0.003926947712898254 0.030151491984725" pbc="T T T"
Yb       4.03078401       2.78460808       2.57966188      -0.01955452      -0.01396721      -0.02001271
Yb       1.56249534       2.78416848       0.11395697       0.03299130      -0.01329430       0.00630447
Yb       4.03068176       0.31163335       0.11471395      -0.01761007       0.02314714       0.00899078
Al       1.56521378       0.31307100       2.57384807       0.00417323       0.00411442       0.00471749
