8
Lattice="3.051586151123047 0.0 0.006969126407057047 0.021823283379706748 5.162151937347613 -0.008439580909907818 0.0 0.0 5.798110485076904" Properties=species:S:1:pos:R:3 pbc="T T T"
Mn       0.11440890       3.64610340       4.10795924
P        1.63576244       2.63275713       2.72438055
Mn       1.62861987       1.01387603       1.22441169
P        0.10715163       2.01236873       5.65642131
P        0.11710237       4.60816666       1.99199452
Mn       0.10172512       1.09312191       3.50845396
P        1.62413776       0.08136183       4.88101187
Mn       1.63935168       3.60731407       0.60415944
