8
Lattice="4.163242340087891 0.0 2.1725587844848633 1.5869155871251188 3.8372744582975993 2.162101984024048 0.0 0.0 5.162452697753906" Properties=species:S:1:pos:R:3 pbc="T T T"
Mn       1.41195318       2.56030922       3.84467444
Mn       3.41758698       3.79041375       5.32309263
Mn       1.87631687       1.86944609       6.42276388
Mn       3.73959694       1.33063698       4.63371881
C        1.51887076       3.52187889       5.52319326
Mn       4.20096858       0.64329893       7.21039120
Mn       3.78081972       3.25570031       7.89767903
C        2.80707854       1.60106734       2.94514908
