11
Lattice="4.008657932281494 0.0 0.0011658258736133575 0.0043427846927449314 6.998313986868589 -1.164166808128357 0.0 0.0 7.442932605743408" Properties=species:S:1:pos:R:3 pbc="T T T"
Eu       1.27189500       1.81172491       6.51119915
Eu       1.27546667       6.84277130       1.64260331
Mn       3.27928874       6.45407392      -0.87754054
Mn       3.27773280       4.16849871       5.29292842
Mn       1.27735086       5.78133174       4.96062684
Ge       3.27507948       1.79826844       1.43043248
Eu       1.26797493       3.77641422       2.77393695
Ge       3.27476670       1.81788324       4.15203540
Mn       3.27147100       4.19384699       0.31085599
Mn       1.26953109       4.83523461      -0.54190391
Mn       3.27850600       6.42636550       4.10301112
