4
Lattice="4.076251762113509 0.018891656741598668 2.327873720342159 1.3213134757650133 3.8566296561556834 2.3293517267265593 0.0136780376396312 0.009725201024295518 4.704596762313306" Properties=species:S:1:pos:R:3:forces:R:3 structure_index=0 total_energy=-11.119202613830566 stress="-0.011314420960843563 -0.044790640473365784 -0.02944251522421837 -0.044790882617235184 0.02248735912144184 -0.020395196974277496 -0.029441138729453087 -0.020395327359437943 -0.08165561407804489" pbc="T T T"
Ni       3.26781503       0.49166478       4.34957816       0.00208298       0.00146633      -0.00015420
Cd       3.23933097       3.37903045       4.34201171      -0.00087517      -0.00067060      -0.00382138
Ag       1.89881715       2.41628797       6.70511712       0.00153295       0.00136486      -0.00658081
Tl       0.54413943       1.44366596       4.35907364      -0.00274076      -0.00216061       0.01055635
