12
Lattice="4.4926343747039486 -0.0023668878366107675 1.3401176287232694 2.048068701217422 3.998232063470694 1.3414464187179995 -0.010846047222100105 -0.009137873050051579 8.236696486217951" Properties=species:S:1:pos:R:3:forces:R:3 structure_index=0 total_energy=-107.12113952636719 stress="0.00044691594666801393 -9.051780943991616e-05 0.00033249048283323646 -8.95041084731929e-05 0.0005212528049014509 0.0002209035592386499 0.0003330446779727936 0.00022063653159420937 -0.0005299911717884243" pbc="T T T"
Fe       2.91200439       1.06225061       4.32952422      -0.01110756      -0.00836005       0.04787482
Fe       1.10585887       1.31749624       6.33285327      -0.01290884       0.00988732      -0.01351355
Fe       4.35838873       3.31250300       3.60890777      -0.01475327       0.01308667      -0.01450233
Fe       4.36387431       3.33566106       7.67278017       0.00382785      -0.01630000      -0.01199774
Fe       3.32953157       1.31620414       6.99688100       0.01683392       0.00965060      -0.00521809
Ta       1.70416543       3.06950829       8.38897434      -0.00323364      -0.00207914       0.00842784
Co       4.97035407       2.31856255       5.63582398      -0.00224780      -0.00092817       0.00931244
Co       1.69470704       0.31606392       8.41448844      -0.00226102      -0.00096313       0.00878651
Fe       2.10227174       3.31384099       2.93637520       0.01986621       0.01306163      -0.00510123
Fe       1.08303681       1.32329947       2.26815476       0.00348699      -0.01811908      -0.01458076
Mo       3.71396093       1.55226178       1.64870386      -0.00017359      -0.00038858      -0.00115311
Mo       2.54509804       3.58424936       5.56890646       0.00267081       0.00145193      -0.00833467
