10
Lattice="5.135080337524414 0.0 -0.5333684682846069 -0.5448730038439292 4.996617004211078 -1.0276503562927246 0.0 0.0 5.134566307067871" Properties=species:S:1:pos:R:3 pbc="T T T"
Sb       0.71386736       1.32592357       0.78856737
O        3.02433309       3.83513904       2.57649218
H        2.89769359       3.38614889       1.72469813
F        4.39964295       0.31419935       0.94921433
F        4.83131465       1.67946176       3.84158459
F        1.78449127       0.98813418       2.34021381
F        2.23531872       2.36053639       0.15445317
F        0.83745745       4.72269322      -1.06249708
F        0.11352498       2.94446995       1.59311621
H        2.28742492       4.15791956       3.11217570
