16
Lattice="3.180582046508789 0.0 0.0035377570893615484 0.0024347182605262765 7.505171857737167 -3.214778423309326 0.0 0.0 8.131893157958984" Properties=species:S:1:pos:R:3 pbc="T T T"
Mg       0.99561595       5.08485287       2.25000044
Mn       0.99786253       1.95604663       2.64600007
Mn       2.58622623       3.74431769      -0.07218041
Mn       2.58803953       7.27747914       0.91332766
Mn       2.58855634       3.39197013       5.03767210
O        0.99746770       3.14193710       0.97637287
Mn       0.99491290       0.86763285       7.16507408
Mn       0.99859576       6.25108663      -2.19762935
O        2.59121992       4.85766878      -1.79640718
O        2.58849093       7.31551672       4.94903468
O        0.99705304       7.19010408       2.19585049
O        2.58452903       1.75359145       3.94617358
O        0.99466157       3.99514117       3.95529053
O        2.58937622       5.31854893       1.10002730
O        0.99538113       7.33963478      -0.40359922
O        2.58444256       2.27827481       6.74831703
