14
Lattice="3.088709012714325 0.014500318560841627 -0.6936738606335491 1.4202130574028795 6.523196576970934 -0.6328580330745394 -0.07948995815475221 -0.0003602443805775107 8.224415026283918" Properties=species:S:1:pos:R:3:forces:R:3 structure_index=0 total_energy=-106.33607482910156 stress="0.03288102522492409 -0.001829954911954701 -0.001076850458048284 -0.0018290153238922358 0.03891589120030403 -0.0009815867524594069 -0.001074819709174335 -0.0009809291223064065 0.02898084744811058" pbc="T T T"
Mn       0.02582194       0.20721129       5.31116448       0.01220822       0.01607353       0.00144830
Mn       1.87243856       5.81407240      -0.59611772       0.00645958      -0.01948050      -0.01023430
Mn       2.12315405       2.36681858      -0.01973123      -0.02286225      -0.01291122       0.02485895
O        1.27067984       0.31389978       3.60547709       0.01755940       0.01384237      -0.01329181
O        2.46095504       3.05519000       1.87470789      -0.01321244       0.00204793       0.02602606
O        1.68141613       3.90665917       6.90787651       0.00463292      -0.02196620       0.00281824
Mn       1.19246665       2.42509469       3.40107391       0.01278600       0.01547381       0.00552227
Mn       2.43471684       5.06270407       2.18869333      -0.01861230       0.01917014       0.00217631
O        1.54169833       4.58468374       3.99627584       0.00989705       0.01609215      -0.00080308
O        3.27717020       6.01894637       5.67927442      -0.00982463      -0.00559732       0.00838180
O        3.45246487       5.40075274       0.51923816      -0.02657816      -0.01776363       0.00469978
O        0.55599707       1.19804644       0.21836033      -0.02816895      -0.01457119      -0.03712154
Mn       3.08442571       4.09566213       5.21231807       0.01254977      -0.00780144      -0.00131795
O        3.05272481       2.32159957       4.42309646       0.04316589       0.01739153      -0.01316288
