12
Lattice="4.789642116269932 0.012062210202989731 0.5526831322115769 2.288766235423604 4.096080050017596 1.1138371482133793 0.04669714519124651 0.06487188050921865 6.613411156460675" Properties=species:S:1:pos:R:3:forces:R:3 structure_index=0 total_energy=-81.93732452392578 stress="0.0310845784842968 -0.002172292210161686 -0.0023897795472294092 -0.002172063570469618 0.03215799108147621 -0.006920414511114359 -0.002390332752838731 -0.006920257583260536 0.06090215593576431" pbc="T T T"
Zn       5.48430325       1.48646861       3.01143717       0.00112727       0.00013181       0.00063294
Zn       3.12649085       0.11729985       2.45662097      -0.00229054      -0.00118519      -0.00106290
Fe       3.65138372       1.08239832       4.82319430      -0.00624554       0.01331169      -0.02235187
Fe       6.03824067       2.43532658       5.37847084       0.00452784       0.00657113      -0.02403826
Fe       5.00656458       0.58581914       7.25748795       0.00445967      -0.01244940       0.02483846
B        6.64247537       3.57166062       6.87490789      -0.01341634       0.01065125       0.00469030
Fe       3.05435432       2.84406012       3.01503820       0.00105847      -0.00049614      -0.00166556
Fe       2.57552483       1.97567567       7.26704291       0.00444091      -0.00151536       0.01591090
Fe       3.57993641       3.77703182       5.37564406      -0.00217627      -0.00308050      -0.01682064
B        1.93448223       0.82775056       5.76410537      -0.00301862       0.00210532       0.00285772
B        4.30245909       2.19256192       6.32040727       0.01610627      -0.00942008      -0.00486973
Fe       4.90714212       3.32819263       7.81737271      -0.00457324      -0.00462456       0.02187855
