14
Lattice="3.195591449737549 0.0 0.006170783191919327 0.000638208035022172 5.15154548506442 -1.6165485382080078 0.0 0.0 10.639361381530762" Properties=species:S:1:pos:R:3 pbc="T T T"
O        2.24341172       1.81047407       6.99012254
Mn       2.24310739       3.09064665       8.48846107
O        0.64647327       1.60463587       1.70676052
Mn       0.64232996       3.26962156       3.20948756
Mn       2.24170875       0.73626596       5.48268670
O        2.24301486       1.46832400       9.68927110
O        0.64883672       4.38350684       7.64605866
O        0.64598879       4.82204786       4.71111297
Mn       0.64593127       0.61899685       0.01128482
O        2.23930904       2.00757455       3.92940350
Mn       2.23944589       0.62246391       2.52935433
Mg       2.24631581       0.02322193       8.03436120
O        2.24419873       4.68883201      -0.71019816
O        2.24094792       4.49782377       2.43458391
