11
Lattice="5.282282829284668 0.0 -2.5789811611175537 -1.3711898516804133 5.198931541155632 -2.45870304107666 0.0 0.0 6.4422712326049805" Properties=species:S:1:pos:R:3 pbc="T T T"
O        1.79247589       0.49819134       4.36866738
O        3.30450593       2.88515449       1.28403904
O        0.69947706       2.74275326       2.47556931
Sr       0.30791062       2.47566852      -1.37604937
Eu       2.20930000       0.91481540       2.03080912
Eu       3.99248659       4.00491066      -0.67973787
O       -0.78388949       4.44009873      -0.31762635
O        4.28097963       0.47150905       2.98594755
Eu       2.46818803       4.76531301      -3.92054443
O        1.88775267       4.40153875      -1.74475836
O        0.09057642       2.01977238       1.31971605
