15
Lattice="5.24639931446303 -0.15562203897457777 0.2813317173763191 -0.30052477322819626 6.156524575258413 -2.2174231889853186 0.3885947330444269 -0.12046810308821994 7.538531079798903" Properties=species:S:1:pos:R:3:forces:R:3 structure_index=0 total_energy=-126.83247375488281 stress="0.023485440760850906 0.004302662331610918 -0.0022551489528268576 0.004298916086554527 0.023842690512537956 -0.002377050230279565 -0.002257727552205324 -0.002374585485085845 0.027571093291044235" pbc="T T T"
Mn       3.01984938       4.12306987       4.11305740       0.00775638       0.00200357      -0.00169083
Mn       1.20353216       1.63277885       6.33024978      -0.00944445       0.00451195      -0.00283805
O        4.77133298       3.81326443       3.01030654       0.03422046      -0.00871015       0.03087759
Eu       0.52652868       1.58010014       2.66784296      -0.00283198      -0.01768516       0.00709513
P        0.52983761       4.94987291       2.05528480       0.01004964      -0.00439363       0.01033375
O        3.60889972       5.61018138       5.45900287       0.00743473       0.00869441      -0.00337565
P        3.33338868       0.92334803       0.85256430      -0.00740089       0.00224809      -0.00793814
O        4.40218703       1.95342678       0.37066396      -0.02013505       0.00852942      -0.00946158
O        0.73076120       0.23881683       4.85214550       0.00241506      -0.00809550       0.00332451
O        2.42829166       2.99979682       5.61774534      -0.01108566       0.00889315      -0.00338136
O        0.30202361       5.06727636       0.52456555      -0.01761895      -0.01394208       0.02596879
O        3.47442702       0.69279639       2.38629593      -0.00723263       0.00667942      -0.01610494
O        1.94465586       4.32279077       2.30347895       0.03073931       0.02365696      -0.01417451
O        1.91770876       1.53414364       0.60652364      -0.01922107      -0.01902241      -0.00515437
Eu       3.05756768       4.14151323      -0.01845652       0.00235491       0.00663209      -0.01347989
