10
Lattice="4.027318954467773 0.0 0.013817938975989819 -1.9966196426047145 5.770010280501942 0.015954362228512764 0.0 0.0 7.7942585945129395" Properties=species:S:1:pos:R:3 pbc="T T T"
Ge       0.89852315       4.22571444       4.10610384
Pt      -1.08854822       5.01727214       2.60454480
Dy       0.91683398       2.49049088       1.63405987
Dy       0.89819840       0.50424854       5.50263547
Ge      -1.09606407       4.52887906       0.17777892
Pt       0.89449499       3.70149012       6.50765625
Ge       2.93611451       0.76882497       3.09467176
Pt       2.91861542       0.20379869       0.60050790
Ge       2.90631648       2.19606079       6.99372926
Pt       2.90946193       2.76190159       4.49777937
