10
Lattice="3.8710105419158936 0.0 -1.2653083801269531 -0.002639364812445927 5.09537962265929 -0.00045517782564274967 0.0 0.0 6.345397472381592" Properties=species:S:1:pos:R:3 pbc="T T T"
Eu       2.82921263       3.82721406      -0.80784424
O        0.73671299       2.46317721       5.89978042
O        1.94996213       2.63963841       3.33992147
B        1.34225905       3.82711505       2.99270093
Eu       3.73241641       1.28023478       2.44197394
B        1.34921527       1.28003053      -0.09922582
O        0.73805214       0.09550598       5.89867180
O        1.94930927       5.01447690       3.34306563
O        0.05835885       3.82457909       2.52081015
O        2.63394849       1.28144657       0.37848168
