12
Lattice="5.8447113037109375 0.0 0.000681856763549149 -2.9202008869415867 5.061016556531538 0.0012061659945175052 0.0 0.0 9.501291275024414" Properties=species:S:1:pos:R:3 pbc="T T T"
Al       4.53899297       0.38037113       0.44547270
Al       1.56412657       0.37921936       0.44646535
Eu       3.05667007       4.60947574       3.47188999
Eu       0.13003707       2.92585646       8.22492294
Al       1.56952860       2.09439029       5.18358036
Eu       3.05469468       4.61247243       6.90184438
Eu       0.13050973       2.92485344       2.17121894
Al       3.05205518       1.23819545       2.81950486
Al       4.53818953       2.09588486       5.18476190
Al       3.05309494       2.95139259       0.44846438
Al       3.05241251       1.23747109       7.56302316
Al       0.13106471       4.58593539       5.18556267
