6
Lattice="4.018710136413574 0.0 -0.145395427942276 -2.152503563082149 3.3340481283576042 -0.13370512425899506 0.0 0.0 9.72146987915039" Properties=species:S:1:pos:R:3 pbc="T T T"
Se       0.40893980       0.80442027       7.53475319
Er       0.30734461       3.02190937       5.73691190
Er       2.36663534       1.92075325       9.04479401
Mg       0.40289737       0.80251455       2.67174653
Se       2.36906050       1.91821195       4.07275405
Se       0.31306422       3.02340119       0.98654640
