12
Lattice="2.626919464677162 0.0016347027271675797 -0.0006128623803950302 -1.316520056735104 4.59206536535487 -0.777047528747444 0.0029854358389366214 -0.24555931149193866 10.881813214219623" Properties=species:S:1:pos:R:3:forces:R:3 structure_index=0 total_energy=-94.67007446289062 stress="0.031745340675115585 -3.891246160492301e-05 1.3588986803370062e-05 -3.967970405938104e-05 0.0348060317337513 0.004455298185348511 1.182861342385877e-05 0.004456039052456617 0.04481653496623039" pbc="T T T"
Ni       1.97664759       0.75653973       4.58368997       0.00041754       0.03797607       0.03127057
Mn       0.66044233       3.88665962       1.84118110      -0.00012744      -0.00374617       0.01851282
Mn       0.66195214       3.85453994       7.64052550       0.00041643       0.00003368       0.00442243
Fe      -0.65240690       2.47513901       0.45741976      -0.00031180       0.00060871      -0.01434829
Mn       0.66229172       1.35644320       2.23644157      -0.00063545      -0.00220356       0.02081727
Ni      -0.65205420       4.27228974       5.65826325      -0.00018641       0.00267117      -0.00067975
Mn       1.97593231       0.04702495       0.40976207      -0.00020044      -0.01844589      -0.00398358
Fe       1.97694545       1.65746498       7.27400273      -0.00055610       0.00126921      -0.02331416
P        0.66262227       2.39287561       5.55499176      -0.00066910       0.02983145       0.00855869
P       -0.65061410       2.96170068       9.21899784       0.00058601      -0.03325702      -0.02286273
Fe      -0.65222799       3.02437100       3.57659142       0.00067330       0.01101375      -0.00463202
Mn       0.66412102       1.02009417       9.48161946       0.00059321      -0.02575137      -0.01376111
