8
Lattice="3.9457967281341553 0.0 -0.00010694774391595274 -0.0007388855234356516 6.930320700357454 -3.9939188957214355 0.0 0.0 8.000227928161621" Properties=species:S:1:pos:R:3 pbc="T T T"
Eu       2.31393909       2.33339803       4.40615615
Eu       2.31191863       3.57937141       0.41580883
Pb       0.33940225       6.42350833       0.73754491
Eu       2.31177946       6.41998518       3.49701760
Pt       0.33963541       1.80242321       6.77065876
Pb       0.34101670       4.72607914      -2.21115445
Pb       0.33833864       1.19495147       1.78425535
Pt       0.33903051       4.11442642       2.77547215
