10
Lattice="2.553541660308838 0.0 0.34646743535995483 1.2405022156627863 4.933914826305445 0.6060270071029663 0.0 0.0 10.0408353805542" Properties=species:S:1:pos:R:3 pbc="T T T"
Al       1.93897340       4.19005227       9.50155275
Li       1.72296369       0.59896865       0.96384066
Li       2.48056980       2.59266607       5.28458867
Al       1.42090129       4.28280232       3.45421383
Fe       0.68749332       1.94161562       9.06038588
Fe       1.19043931       0.30126966       5.12304800
Li       0.96148692       3.38134031       7.08834123
Fe       2.20190533       0.87580103       7.38582868
Fe       1.44950836       1.61643256       3.14247776
Fe       2.95389472       2.97837402       1.62735223
