16
Lattice="4.908057689666748 0.0 0.23719437420368195 0.18439652512333235 4.974483552346146 -0.7449085116386414 0.0 0.0 6.5233917236328125" Properties=species:S:1:pos:R:3 pbc="T T T"
Mn       4.06648282       3.75341908       5.82422682
Mn       3.42699015       4.26789538       3.37150498
Mn       1.56023376       2.34744315       2.99770621
C        2.21161187       0.92565187       4.28958526
Mn       0.83897999       1.85497384       5.32816807
Mn       0.96491868       3.36115925       0.78572558
C        4.36213678       4.42758294       1.55651440
Mn       3.37259306       2.70074421       1.40114074
Mn       1.64047204       4.38875892       5.15128968
Mn       0.91118615       4.83260452       2.77609535
Mn       3.95339416       1.77794224       3.67070069
C        1.79359269       1.60703059       0.66903475
Mn       3.27718758       1.19878840       5.99366862
Mn       2.56240624       0.24759864       1.77143130
C        0.19040252       3.36667271       4.01290365
Mn       0.11360161       0.89488745       1.12206149
