4
Lattice="3.648714575769262 -0.00029784749037809627 -0.9956063380899665 -0.8322131610271218 5.806126232533162 -3.0479642418391335 0.029867249788902987 0.06830470286190793 7.292505502784965" Properties=species:S:1:pos:R:3:forces:R:3 structure_index=0 total_energy=-34.931976318359375 stress="0.03583335876464844 -0.0019231170881539583 -0.0030230768024921417 -0.0019231227925047278 0.03388974815607071 -0.00696727866306901 -0.0030230586417019367 -0.006967271212488413 0.026954684406518936" pbc="T T T"
Eu      -0.41085753       5.24287445       0.11992538       0.00265928      -0.01721645       0.01011322
Eu       0.84491068       2.83911748       4.72658641      -0.00560956      -0.00407380      -0.02265150
Tm       1.82858626       2.36362312       1.13945810      -0.00320789       0.00689211      -0.00793189
Eu       2.28318391       5.80776448       2.81482412       0.00615817       0.01439814       0.02047018
