14
Lattice="6.448904991149902 0.0 -2.746415376663208 -0.3632125828128218 7.789357461839386 -0.8545902967453003 0.0 0.0 9.130186080932617" Properties=species:S:1:pos:R:3 pbc="T T T"
Eu       2.12677943       5.91937164       4.73300572
Eu       4.08117736       6.76228654       1.37381578
Eu       4.85199081       0.09159866      -1.32242515
Eu       1.76780845       1.48021120       1.42938050
Eu       0.34174138       0.94690203       7.19532177
Eu       0.72019758       5.36273294       1.36791013
Eu       3.15569361       2.02802204       4.82171868
Eu       3.04383657       3.99230143      -1.06518047
Eu       5.88250479       2.87520485       1.12866229
Si       3.31159230       3.95321353       2.42961509
Si       1.78924275       6.80363456      -1.23445421
Eu       5.77082353       4.84080907       4.37693826
Si       0.70110513       0.06513962       4.01496042
Si       5.61167507       2.90779001      -2.32159550
