8
Lattice="4.009370665282223 0.0002814434775290279 -0.0015862177527520478 -0.00028447294509655627 4.008946290674408 -1.7535439804691022e-05 0.0013391067544639168 -0.0006041237528989958 10.950229230133942" Properties=species:S:1:pos:R:3:forces:R:3 structure_index=0 total_energy=-57.0081787109375 stress="0.028927722945809364 6.551607839355711e-06 0.00011816971527878195 6.685556854790775e-06 0.02551659382879734 0.000175370805663988 0.00011811545846285298 0.00017516055959276855 -0.020251797512173653" pbc="T T T"
Eu       1.35307416       1.05875206       6.27643166      -0.00099907      -0.00122612       0.00485632
As       3.35673015       3.06332962       5.05467245       0.00039770      -0.00180889      -0.01907314
Mn       1.35218805       3.06371865       3.19749878      -0.00214324       0.00213847       0.00262674
Eu       3.35763822       3.06279533       0.11894517       0.00052395       0.00167078      -0.00721045
As       1.35364443       1.05822698       1.34146828       0.00026004       0.00181146       0.01421836
As       1.35400702       3.06196896       8.67276398      -0.00022043      -0.00220722       0.00222786
As       3.35861804       1.05929131       8.67223425      -0.00050432       0.00185101       0.00082766
As       3.35860492       1.05590221       3.19726396       0.00268533      -0.00222952       0.00152671
