11
Lattice="3.168644428253174 0.0 -0.6671559810638428 -0.2534916446879807 5.099317424474526 -1.2140638828277588 0.0 0.0 7.794508934020996" Properties=species:S:1:pos:R:3 pbc="T T T"
Fe       2.79128934       1.92064608       1.78861348
Fe       0.58097675       1.11573837       6.97923433
Fe       0.82386279       4.11168685       0.29525326
H        1.73893805       0.83629910       4.60269788
H        2.81421725       4.48514588       1.88725766
O       -0.10822316       3.39927880       3.66457472
O        1.90668752       1.38420401       5.38604288
Fe       1.74869689       3.49152246       4.63179914
O        0.41684411       4.22430533       6.19487737
O        0.96055105       2.13705457       0.83652718
O        2.63143031       4.96793350       0.99828336
