9
Lattice="3.89215987566923 6.95759315514567e-05 0.00011284430736942582 -0.00039571921531674506 8.881082478512358 -5.133285673523239 -0.0004328070006648353 0.0031471940473464734 10.259257790003446" Properties=species:S:1:pos:R:3:forces:R:3 structure_index=0 total_energy=-75.0860824584961 stress="-0.011151294223964214 -1.6864578356035054e-05 2.816785672621336e-05 -1.6906540622585453e-05 -0.00468056183308363 3.5324406781001016e-05 2.8138460038462654e-05 3.5324406781001016e-05 -0.004029328003525734" pbc="T T T"
Eu       1.90976256       0.52153506       6.44551782       0.00006542      -0.03622341       0.02339143
Mg       1.90861981       3.86436048       7.89270666       0.00047426      -0.00066409       0.00110435
Eu       3.85552912       1.27130265      -0.62672944       0.00021927       0.03509078      -0.00695498
Eu       1.90967440       0.90414060       2.76310199       0.00005020      -0.00154870       0.00117041
Eu       1.90948659       4.28324967       1.25441807       0.00027562       0.03619365       0.01881096
Eu       3.85553512       3.65439216       4.77676240      -0.00001277      -0.01172284       0.03662235
Eu       1.90974840       6.78670158       5.72575293      -0.00010875       0.00057482      -0.04442424
Eu       3.85641387       6.66287950      -0.99010565      -0.00062303      -0.02258989      -0.02754321
Mg       3.85597759       6.82520784       2.76779989      -0.00034024       0.00088968      -0.00217707
