10
Lattice="3.7061296172895037 0.009814341597417628 -0.010600055944050652 -1.8722576171106255 6.6850866579302055 -0.38516839369539974 0.027873688488811228 0.045014774593712205 9.766714571608327" Properties=species:S:1:pos:R:3:forces:R:3 structure_index=0 total_energy=-90.55675506591797 stress="-0.026551712304353714 -1.5073919712449424e-06 2.218163172074128e-05 -1.1322380260025966e-06 -0.02361651323735714 -0.0022605927661061287 2.2314576199278235e-05 -0.002260572975501418 -0.027108976617455482" pbc="T T T"
Si      -0.77244945       3.18755360       8.84146679       0.00068473      -0.00258142       0.01696658
Eu       1.05223136       5.39481774       0.89155957       0.00005009       0.00853246      -0.00286190
Eu       1.06176082       5.80678345       4.81154533       0.00009452      -0.00304474       0.03214090
Eu       1.08707971       0.41170298       8.23960781      -0.00118897      -0.00499283       0.00296190
Si      -0.79138929       4.02036380       3.19445012       0.00047039       0.00901106       0.00504217
Eu       2.92709199       2.45253018       5.70988776      -0.00060137       0.00036067      -0.00652648
Si       1.07467753       4.23797812       7.70948553      -0.00003616       0.00683348      -0.01512124
O        1.06656039       0.05558566       0.80402036      -0.00059572      -0.00251359      -0.00977806
Eu       1.06246625       2.15343795       1.67215781      -0.00008086       0.00607076      -0.02553937
O        1.07829272       0.74703475       5.82265006       0.00120341      -0.01767589       0.00271549
