8
Lattice="3.2820698379001714 0.01886038358984888 -0.7484459222045787 -0.020935132444468946 3.982776859618468 0.008942228799325557 0.014410504699135315 -0.01770998317297431 7.5996849894965814" Properties=species:S:1:pos:R:3:forces:R:3 structure_index=0 total_energy=-46.94902038574219 stress="0.006479524541646242 -0.0006918460130691528 0.0005870841559953988 -0.0006919856532476842 0.04072875156998634 -6.234691682038829e-05 0.0005882612313143909 -6.186123209772632e-05 0.015445682220160961" pbc="T T T"
Cu       1.86261146       2.22158538       6.25524618      -0.01722150      -0.00172152       0.01393849
Pr       2.63738982       2.23582888       2.03971770      -0.00073192      -0.00009694      -0.02230117
O        0.59250467       2.22804742       0.63227670       0.02469210      -0.00109788       0.03986305
Cu       0.53298266       0.23667167       0.36002500      -0.00482035       0.00277699      -0.00209689
Cu       1.45835751       0.23313489       4.38088212       0.00338044      -0.00179187       0.00915110
O        1.89430146       0.23001830       6.28903445       0.00034516       0.00307936      -0.00509655
O        1.41195498       2.22469132       4.22602677      -0.00746908      -0.00071871      -0.04774904
O        1.01610971       0.23505525       2.46026917       0.00182509      -0.00042937       0.01429075
