18
Lattice="4.626250743865967 0.0 -1.784488558769226 -0.6131834752086723 5.558050109026219 -1.5920050144195557 0.0 0.0 8.384085655212402" Properties=species:S:1:pos:R:3 pbc="T T T"
Mn       3.77711256       0.72177111       2.65286240
F        2.89261259       4.00288284       3.55941444
O        0.89780889       2.12103814      -0.96618253
Mn       1.82328040       1.50579559       5.73786353
Mn       0.91260843       3.69731844       3.05303816
O        3.11364510       1.46115715       4.31965623
Mn       4.11319235       3.06002142       4.67509861
Mn       2.55195065       3.35103299      -0.42823765
O        0.49104747       2.56173000       4.84634007
Mn       0.28498202       1.02436447       0.94275456
O        0.79552352       0.00520914       5.18328585
F        1.93786891       4.38158485       1.12823300
F        3.63133150       5.44027292      -0.66074735
O        4.22376208       2.70082591       0.14796999
F        2.99322967       0.52962189       6.88199114
O        2.88385045       3.09603195       6.10817937
F        2.16752208       1.57230924       1.79903984
F        0.37402429       4.71472751      -1.38176068
