6
Lattice="4.122138688518785 -0.0008660068239326238 0.00035477727366256 0.0011893658933448078 4.197932187457956 -2.424412660181156 -0.0003592059895871621 0.000373313860288993 4.847663738344347" Properties=species:S:1:pos:R:3:forces:R:3 structure_index=0 total_energy=-48.17539978027344 stress="-0.02261565439403057 0.000749338767491281 0.00027991714887320995 0.0007486263639293611 0.02040308713912964 -2.7818734906759346e-06 0.0002798375498969108 -2.74896797236579e-06 0.021314047276973724" pbc="T T T"
Gd       2.08033098       0.35147891       3.38238230      -0.00084119      -0.00085601      -0.00404477
Co       2.08051632       1.75066042       0.95813037       0.00145449      -0.00173889       0.00099086
Co       0.01892932       0.35122954       0.95744251       0.00350885      -0.03674567       0.00338662
Co       0.01996180       2.44960658       2.16991533      -0.00274946       0.02382273       0.03496731
Co       0.01991181       2.45093531      -0.25323798      -0.00040621       0.01799213      -0.04005443
Ni       2.08126316       3.14997139      -1.46655646      -0.00096649      -0.00247423       0.00475436
