4
Lattice="3.062465902000368 -3.6873714675460126e-05 -0.0007668378435725495 3.862854560074953e-05 3.0624623582343613 0.0016001817377309213 0.0010110099589715688 -0.002414886274656973 5.9877605489167" Properties=species:S:1:pos:R:3:forces:R:3 structure_index=0 total_energy=-32.61116027832031 stress="0.0487569235265255 5.534883894142695e-05 -0.0009977453155443072 5.530636917683296e-05 0.048633258789777756 0.002054789802059531 -0.0009974311105906963 0.0020551332272589207 -0.002358165569603443" pbc="T T T"
Mn       0.57086375       1.53992956       4.43738126      -0.00039893       0.00041210      -0.00134997
Ru       2.10149120       0.00971311       2.91821697       0.00102513      -0.00115991      -0.04951124
As       0.57021945       1.54135028       1.44313510       0.00048140      -0.00092122       0.00336749
Ru       2.10256195       0.00772812       5.95423867      -0.00110762       0.00166904       0.04749368
