16
Lattice="3.089301109313965 0.0 0.4299980103969574 1.5638163981706155 5.173869254796944 0.13445553183555603 0.0 0.0 11.483748435974121" Properties=species:S:1:pos:R:3 pbc="T T T"
Mn       2.86298302       2.79458445       3.05519085
Mn       1.49474002       0.40377941       1.52343193
Fe       2.18499270       1.62456299       7.97194061
Mg       3.36946016       1.23220156      10.84198460
O        2.40470837       0.50748257       6.32439831
Mn       2.66856026       0.03497178       4.42328787
O        3.09755685       1.64574275       1.33913289
O        3.31293165       5.09142392      11.30854068
Fe       2.35795226       4.33198005       6.74610372
Fe       3.52708631       3.93120532       9.73818050
O        1.94143125       2.41088969       9.79011665
O        0.55205986       0.28603984       8.39501568
O        3.79494184       3.03467667       7.72272253
O        1.39208673       4.33088414       2.33435898
O        2.61626339       3.91303295       4.84497092
O        1.24522860       1.26222328       3.35460584
