12
Lattice="3.9797260761260986 0.0 0.003014767775312066 -1.9862704243960823 3.449646482174349 -0.009568551555275917 0.0 0.0 9.920843124389648" Properties=species:S:1:pos:R:3 pbc="T T T"
Fe       1.32546472       1.42174629       8.64007188
Fe       1.32808403       1.42189371       6.15782562
Fe       1.32728017       1.42062476       3.70237167
Fe       3.31597404       0.27301589       7.81972449
Fe       3.31709210       0.27224453       0.36837631
Fe       3.31712814       0.27221901       2.85559478
Si      -0.66568518       2.57193135       2.09713633
Si       3.31707423       0.27536990       5.32042392
Fe       1.32865311       1.42218702       1.19769008
Fe      -0.66080340       2.57181497       4.51762500
Fe      -0.65959350       2.57289692       6.95692637
Si      -0.66064677       2.57102068       9.41391809
