8
Lattice="4.450401782989502 0.0 0.01197228766977787 -2.16913185156723 5.612250071829446 0.0053828079253435135 0.0 0.0 6.86595344543457" Properties=species:S:1:pos:R:3:forces:R:3 sample_seed=84000 sample_index_within_seed=0 benchmark_method=TCL dft_verified=F structure_index=0 total_energy=-44.48329544067383 stress="0.3810884356498718 0.21999847888946533 0.10319827497005463 0.2199985235929489 1.0400278568267822 0.016301658004522324 0.10319817811250687 0.01630191132426262 0.4229453206062317" pbc="T T T"
Eu       2.40369423       1.83200709       4.82358501      -0.00981176       0.02568238      -0.01250602
Eu       2.42732179       3.76924727       1.38131730       0.01731429      -0.05356016       0.01758086
Zn       2.39130697       0.53873077       1.37022159      -0.00258749       0.00020374       0.02793602
Ge       0.17353896       1.45580602       2.72773360       0.00669253       0.02146506      -0.27015609
Ge       0.17978441       1.44260919       0.03835502      -0.03015427       0.07584466       0.25095418
Zn       2.44181195       5.05084262       4.82456896      -0.00318283       0.05882862      -0.01321447
Ge       0.20747178       4.13118440       3.49085500      -0.00351257      -0.03926653       0.08171058
Ge       0.20271916       4.13989253       6.13143809       0.02524210      -0.08919780      -0.08230515
8
Lattice="4.674074649810791 0.0 -2.149600028991699 -2.7736886223739816 4.253273347825031 -0.8451740741729736 0.0 0.0 5.151638031005859" Properties=species:S:1:pos:R:3:forces:R:3 sample_seed=84001 sample_index_within_seed=0 benchmark_method=TCL dft_verified=F structure_index=0 total_energy=-74.41963195800781 stress="-1.2679792642593384 -0.5799554586410522 -0.0803065150976181 -0.5799575448036194 -1.4081313610076904 0.22581423819065094 -0.0803069993853569 0.22581490874290466 -0.9915201663970947" pbc="T T T"
Fe      -0.07981564       3.54340490       1.27828306      -0.01132229      -0.03799770      -0.02050502
Fe       4.33686521       0.35238849      -0.45238411       0.03764015      -0.03430035      -0.03469398
N        0.05342827       4.07010355      -0.45175228       0.06670861       0.01644677       0.04499010
Eu       1.30889458       1.42255242      -0.87662812      -0.01827370      -0.02846453      -0.00240446
N        0.49365793       1.94584510       1.92023429      -0.10141396       0.03989084      -0.03567625
Eu       2.95117943       2.48436209       1.70007358       0.00851511      -0.03086252       0.00735303
N        3.78516701       0.45625108       2.96852521       0.03905863      -0.04305820       0.14047241
N       -1.87336476       3.44734154       1.51931016      -0.02091269       0.11834574      -0.09953592
16
Lattice="4.912473678588867 0.0 -0.3061021864414215 -0.005379807529540997 4.877006901400246 -0.3629879057407379 0.0 0.0 6.63554048538208" Properties=species:S:1:pos:R:3:forces:R:3 sample_seed=84002 sample_index_within_seed=0 benchmark_method=TCL dft_verified=F structure_index=0 total_energy=-142.99745178222656 stress="-6.415233612060547 -1.1892203092575073 1.166948914527893 -1.1892203092575073 -7.932013511657715 0.19099296629428864 1.1669450998306274 0.1909930408000946 3.8776795864105225" pbc="T T T"
Mn       2.40467552       1.28755394       4.07491029      -0.30298716      -0.36745119      -0.34192783
Mn       4.31178977       1.45840847      -0.14206028       0.46281505      -0.71112496       0.55975664
Mn       1.60479048       4.72859629       1.90244947      -0.00575562      -0.15492159       0.01813104
Mn       4.10058942       0.48909595       2.12805455       0.43349576      -0.25272444       0.35080722
Mn       3.38621766       2.95800628       1.92846443      -0.11747897       0.12280327       0.02229637
P        3.37314289       2.94401904       5.22790816       0.15458879      -0.00782588      -0.05861209
Mn       1.75882873       2.13891339      -0.25210038      -0.74106109      -0.24154001       0.51939178
Mn       0.95240017       2.25640495       2.05961376       0.32604304      -0.57821286      -0.44921386
Mn       0.16521798       3.93402067       0.05197348       0.26125038       0.24609154       0.28440681
Mn       2.55176258       4.64941346      -0.31758442      -0.35125569       0.71351731       0.31631875
Mn       1.64547020       3.80977008       4.14741173      -0.36639369       0.18928351      -0.28683931
C        2.58940071       1.29430280       1.33320664      -0.33337688       0.28953731      -0.78029305
Mn       0.00465769       2.03245767       4.32697848       0.61315519      -0.42478132      -0.52801818
C        0.90781011       0.54602022       5.56874911       0.04934384      -0.04272141       0.05609059
C        0.14444717       3.75193046       2.82928514      -0.33622366       0.51647592       0.86187840
Mn       4.19112558       4.57645087       4.10166785       0.25384021       0.70359480      -0.54417342
10
Lattice="3.9432380199432373 0.0 0.014226105064153671 0.021057386418869013 3.933360478081379 0.01677294448018074 0.0 0.0 18.000686645507812" Properties=species:S:1:pos:R:3:forces:R:3 sample_seed=84003 sample_index_within_seed=0 benchmark_method=TCL dft_verified=F structure_index=0 total_energy=-88.6778564453125 stress="-4.5630412101745605 0.03387455269694328 0.005377695895731449 0.03387455642223358 0.7850672006607056 0.09104785323143005 0.005377790424972773 0.0910472571849823 0.40873077511787415" pbc="T T T"
Gd       3.39839793       3.41044830      17.10198510      -0.01662094       0.02236499      -0.04601306
Gd       3.38872722       3.41432089       6.88035893       0.00482207       0.00226870      -0.11322004
Gd       1.40783244       1.44457960      14.59710206       0.01088780       0.00646447       0.06153798
Co       1.40773996       1.44967366      11.96814603       0.00169665      -0.00376930      -0.11551800
La       3.39158869       3.41430495      11.90312966      -0.00285949       0.00265389       0.09872476
Gd       1.40817588       1.44772974       9.19143104      -0.00298258      -0.00271693       0.03290331
Co       1.41449571       1.44342003       0.86997134       0.16470227      -0.01153601      -0.00744537
I        1.41052784       1.44616411       4.77082018       0.00045447       0.00318743       0.05106842
Co       3.39104845       1.44765542       0.83381372      -0.16242731       0.00911178      -0.01359218
Dy       3.39622562       3.41749436       2.58455446       0.00232699      -0.02802899       0.05155438
7
Lattice="4.075175762176514 0.0 -0.0036684460937976837 -2.0471023962422525 4.471332045123699 -2.208789348602295 0.0 0.0 7.0576982498168945" Properties=species:S:1:pos:R:3:forces:R:3 sample_seed=84004 sample_index_within_seed=0 benchmark_method=TCL dft_verified=F structure_index=0 total_energy=-58.5714111328125 stress="-0.4344329237937927 -0.04240373894572258 -0.03748247027397156 -0.04240429401397705 -0.28571999073028564 0.48220542073249817 -0.03748258203268051 0.482205867767334 -0.35967206954956055" pbc="T T T"
Al      -0.79204111       4.30549805       2.80514470       0.00432261       0.01391776       0.05175740
Al      -0.78571618       2.99456366       0.36510337      -0.00170515      -0.01008620       0.00237074
Fe       1.25377064       1.88067862      -0.47065798      -0.00805099       0.07703785      -0.05452381
Gd       1.25099888       4.25339279      -1.85886126      -0.00578610      -0.04022899      -0.04360534
Al       3.28717380       1.68128276       4.97647283       0.01094381      -0.01630882      -0.01846060
Fe       1.24983217       4.10582821       1.19977013      -0.00041190      -0.08330032       0.05033948
Gd       1.25120211       1.72934143       2.59681816       0.00068771       0.05896862       0.01212209
4
Lattice="4.731461048126221 0.0 -2.706862688064575 -1.4540732615428171 4.502572785970564 -2.697847366333008 0.0 0.0 5.5462541580200195" Properties=species:S:1:pos:R:3:forces:R:3 sample_seed=84005 sample_index_within_seed=0 benchmark_method=TCL dft_verified=F structure_index=0 total_energy=-23.378618240356445 stress="-0.569588303565979 0.2693229615688324 0.11217763274908066 0.2693230211734772 -0.3930899202823639 0.19156478345394135 0.11217759549617767 0.19156485795974731 -0.36227262020111084" pbc="T T T"
Eu       0.36123579       0.74684629       0.31539616      -0.02053605       0.00407046       0.00901673
Hg       3.53637719       1.87423050       0.38370464       0.00678234      -0.00160558       0.00698282
Eu       1.98754159       2.99922799      -2.37919822       0.02003935      -0.00051316      -0.01565498
Hg       0.45097155       4.12566047       0.39209792      -0.00628564      -0.00195174      -0.00034457
10
Lattice="3.826911449432373 0.0 -0.005111929029226303 -0.0019775109790035397 5.34318029049472 -0.04632088914513588 0.0 0.0 5.339346885681152" Properties=species:S:1:pos:R:3:forces:R:3 sample_seed=84006 sample_index_within_seed=0 benchmark_method=TCL dft_verified=F structure_index=0 total_energy=-84.64339447021484 stress="2.6364521980285645 -0.015015846118330956 -0.08078932017087936 -0.015015452168881893 -2.1156821250915527 2.092057228088379 -0.08078745752573013 2.092057466506958 -2.383599281311035" pbc="T T T"
Mn       3.16763914       0.91033656       3.10187060       0.09071412      -0.21262370       0.23854050
Mn       3.17306625       3.62678383       0.39419575      -0.00481286       0.15590823      -0.24796975
Mn       1.25767289       4.85487302       1.80638164      -0.00380471      -0.20299608       0.25628421
Mn       1.25616654       5.09145117       4.55158136      -0.00459689       0.19627312       0.17435998
C        1.25977433       3.62517742       0.38771893      -0.00150588       0.19949268      -0.12691757
V        1.26133089       2.09763353       1.60264743      -0.01472373       0.09269930      -0.30833182
Ge       3.17503414       3.59888799       3.06242014      -0.01413805       0.02110145       0.09155007
Mn       1.25913554       2.33888217       4.35285884      -0.00341540       0.18100980      -0.27214915
C        1.25765008       0.91070663       3.12083405      -0.04930844      -0.23819318       0.35765356
Si       3.17224390       0.91877154       0.40127549       0.00559197      -0.19267167      -0.16302012
10
Lattice="3.193437337875366 0.0 0.8297295570373535 1.3888804178643845 5.29672521600872 1.2350815534591675 0.0 0.0 6.552583694458008" Properties=species:S:1:pos:R:3:forces:R:3 sample_seed=84007 sample_index_within_seed=0 benchmark_method=TCL dft_verified=F structure_index=0 total_energy=-91.45565795898438 stress="-8.092409133911133 0.19662818312644958 0.8348022699356079 0.19662712514400482 -0.8783836364746094 -0.20849373936653137 0.8348046541213989 -0.20849137008190155 -11.054383277893066" pbc="T T T"
Eu       2.77229111       0.26794705       6.33116571      -0.08846851       0.00939202       0.31194979
C        2.19907990       1.33165257       1.97276424       0.09683041      -0.17345709      -0.29163277
Eu       1.86531330       4.71612011       3.27621274       0.07978062       0.10032470      -0.29751819
Mn       1.71790465       1.72148725       3.82564204       0.09912217      -0.16412598      -0.26567203
Mn       0.72147359       2.49548853       1.12115851      -0.00367811      -0.07241104       0.02227715
C        2.43711604       3.64954791       7.63689543      -0.09360757       0.26415372       0.29835549
Mn       2.91522802       3.27715255       5.79928815      -0.04811794       0.16914988       0.05184938
C        1.24019070       2.30761159       5.67188064      -0.00649004      -0.03713001       0.14328951
C        3.01466550       5.15850731       5.41204287      -0.02194603      -0.09402407       0.12185587
C        3.39799127       2.69435232       3.93633116      -0.01342477      -0.00187172      -0.09475402
