11
Lattice="3.833707809448242 0.0 0.008769937790930271 -0.12765126831361975 7.574437792004095 -2.0913562774658203 0.0 0.0 9.29415512084961" Properties=species:S:1:pos:R:3 pbc="T T T"
Zr       3.10103660       5.51208855       3.80036893
Se       1.13102456       6.34692514       6.42227323
Se       3.15518368       0.47218525       5.54636348
Se       3.09978163       5.12524008       0.92340234
Zr       1.20883229       3.21742846       1.35223466
Zr       3.15459100       0.62100397       8.29776417
Ag       3.10998979       4.07927502       6.49359740
Se       1.21348686       2.58471597       7.96419789
Se       1.21244463       3.63770750       4.05420677
Ag       1.13459174       7.43506307       1.43353173
Se       3.15124987       1.25958182       1.70584234
