8
Lattice="4.232943058013916 0.0 0.005644847638905048 0.019423339328071023 4.594291160212394 0.027472656220197678 0.0 0.0 5.117826461791992" Properties=species:S:1:pos:R:3 pbc="T T T"
Zn       1.57518052       4.05168435       0.49488086
Fe       3.67450434       0.33874862       4.27077646
Zn       3.68441009       2.61311028       3.04882440
Fe       1.56539627       1.73462422       1.72119060
Fe       3.68445592       2.56898873       0.48910881
Fe       1.56583103       1.73302403       4.36137930
Fe       1.57527815       4.09999183       3.05470114
Fe       3.67515878       0.33689037       1.80100016
