12
Lattice="4.063410900616858 0.0014141718207174594 0.0023061322190830406 -2.032971506532605 3.519222262122294 5.6102720258881846e-05 -0.006531000379217082 0.002014926401753218 10.230548228101314" Properties=species:S:1:pos:R:3:forces:R:3 structure_index=0 total_energy=-90.17637634277344 stress="-0.03786611184477806 -0.0010883229551836848 0.0012808711035177112 -0.0010887105017900467 -0.03908451274037361 -0.00040197360794991255 0.0012805814621970057 -0.00040170978172682226 -0.04319830983877182" pbc="T T T"
Fe       2.33313607       2.58106809       6.61417830       0.00379184      -0.00386035       0.02300797
Fe       2.33371006       0.23100075       9.96044457      -0.00474862       0.00182382       0.01311678
Fe       2.33421743       0.23287212       7.52356784      -0.00166910       0.00254040      -0.04482026
Fe       0.30253895       1.40777753       5.73463628      -0.00193505      -0.00055844      -0.01323652
Ge       0.30712629       1.40156806       0.44385592       0.00007341       0.00398534       0.01144078
Fe       2.33702659       2.57611172       1.48015822      -0.00025753       0.00309968       0.02872991
Fe       2.33439230       2.58130593       3.99821943       0.00108956      -0.00469738       0.01294474
Fe       0.30183615       1.40483699       8.21151543      -0.00028616       0.00188359       0.02204106
Ge       2.33677916       0.23119272       2.32582762       0.00112319      -0.00166971      -0.02585309
Fe       0.30381348       1.40498790       3.15245120       0.00085163       0.00046321       0.01266371
Fe       2.33283736       2.57808770       9.13761115       0.00022696       0.00170109      -0.00112215
Ge       2.33465570       0.23567669       5.07699475       0.00173984      -0.00471124      -0.03891298
