10
Lattice="5.1712493896484375 0.0 -2.1445982456207275 -2.0625226925269406 5.161440816481396 -0.7367381453514099 0.0 0.0 7.782103061676025" Properties=species:S:1:pos:R:3 pbc="T T T"
Pt      -0.02906675       0.75665857       3.20021081
Gd       2.80025446       0.86279408       2.75626431
Gd       0.00629271       0.52432285       0.12244521
Gd       0.61274913       3.20813889       4.58755504
Pt       2.93670121       4.07800690       2.52950154
Gd       2.99449844       2.86252308      -0.18629881
Pt       3.84226273       2.87867018       4.82794515
Pt       0.64211319       2.96767366       1.51381110
Pt       0.78941189       4.80853504      -0.69278693
Pt       1.94855023       0.84319558       5.52957563
