16
Lattice="4.182052135467529 0.0 0.011309212073683739 -2.0775892536819796 8.913873264642714 -0.5896016359329224 0.0 0.0 11.854061126708984" Properties=species:S:1:pos:R:3 pbc="T T T"
P        0.59273994       6.48072801       4.96950054
Eu       0.59825048       6.69954040       7.99011671
Eu       0.59250374       5.66299254      11.17680489
Eu      -1.49865253       8.16495072       3.57798799
Eu       2.68148006       5.56741072       2.29405153
Eu      -1.49498010       8.78231550      11.13538440
Eu       2.67857985       4.48554758       5.84604503
Eu       2.67972211       1.97635272       3.00599040
Eu       2.67995182       2.86051367      11.34899650
Eu       2.67324834       0.48072794       6.66326938
P        0.59101577       3.53653010       1.41399802
P        2.67491874       0.60771137       9.56702768
P        0.59472284       7.92564736       1.33020211
Eu       0.58840807       2.66033771       8.52785803
P        2.68755973       4.85964119       9.04181648
P        0.58597393       2.09269103       5.39237417
