12
Lattice="5.658430576407233 0.003083812055170976 0.0007390455800153727 -2.8317894274758078 4.898836856918333 -2.5048656979243466e-05 -0.0011628055836556753 -0.00019577494740601438 8.567864281727886" Properties=species:S:1:pos:R:3:forces:R:3 structure_index=0 total_energy=-97.46871948242188 stress="-0.032937191426754 0.0005522096762433648 -1.018224884319352e-05 0.0005525409942492843 -0.032170433551073074 7.705738244112581e-05 -9.736432730278466e-06 7.701466529397294e-05 -0.03200933337211609" pbc="T T T"
Eu       2.29890035       2.92219613       2.17461070       0.00193796      -0.00142390       0.01363354
Eu      -0.53153186       4.55185686       6.45694268       0.00206996       0.00420015       0.01965684
Pt      -0.52951632       2.94751313       3.75522119      -0.00228333      -0.01019627      -0.00497325
Pt       0.90999029       0.45689271       3.75443079      -0.00817093       0.00358318      -0.00039676
Eu       2.29947360       2.92079016       5.33582889      -0.00059333      -0.00012448      -0.01625972
Pt       3.69152326       0.45821649       3.75418256       0.00848034       0.00615479       0.00161259
Pt       3.69009621       2.11872760       8.04056132       0.00663888      -0.00351137      -0.00675757
Eu      -0.53059454       4.55365111       1.05083926      -0.00081641      -0.00027242      -0.01446719
Pt       0.90862448       2.11717245       8.03823188      -0.00925505      -0.00507689       0.00018606
Pt       2.29750732       4.52703159       8.03772604       0.00179047       0.00868595       0.00315688
Ge      -0.52942374       1.28592012       5.89586443      -0.00013183      -0.00064752       0.00276049
Ge      -0.52894244       1.28693646       1.61201272       0.00033332      -0.00137135       0.00184797
