14
Lattice="6.106666564941406 0.0 -0.3132053315639496 2.1748111673770576 6.127588894107783 -0.14908069372177124 0.0 0.0 6.790920734405518" Properties=species:S:1:pos:R:3 pbc="T T T"
Mg       2.88035573       5.03254803       0.76016879
S        4.49627713       3.58978221       6.46235185
Mg       2.81301595       1.75934227       0.19234755
Ti       5.36367743       3.08562039       1.78066544
S        4.36535299       1.85556029       3.51039377
Ti       0.13071549       0.36233603       3.62689887
Ti       5.91136021       3.80934992       4.31122564
Cr       2.70874369       3.60264279       3.91422876
S        1.39862800       1.99219916       4.92329729
S        7.64005519       5.28085007       5.19204151
Ti       5.47576605       1.53067169       5.75853836
S        4.26225284       5.02141464       3.07102726
S        0.66136433       1.27527227       1.34670119
S        7.25177785       4.47201436       2.11912457
