15
Lattice="5.267763137817383 0.0 0.012473714537918568 -0.009025362867954606 6.178613746578499 -2.139373779296875 0.0 0.0 7.610441207885742" Properties=species:S:1:pos:R:3 pbc="T T T"
Mn       3.18006886       4.43098604       4.04972445
Mn       0.55764103       1.54594983       6.46972206
O        4.57669203       4.25157663       2.45077947
Eu       0.56007865       1.81001608       2.67925248
P        0.55127440       5.09556964       2.02423597
O        3.18813866       5.87323070       5.56847711
P        3.19367676       1.05100145       0.82425156
O        4.45660786       1.89775054       0.44639236
O        0.55977017       0.31750607       4.84856654
O        3.19129146       2.85126616       5.28518082
O        0.55487544       5.27952288       0.48973446
O        3.19483104       0.82204156       2.34912219
O        1.79249405       4.25089863       2.44321740
O        1.92831907       1.89255858       0.44235287
Eu       3.19110730       4.29247420       0.09479477
