6
Lattice="4.8293328285217285 0.0 2.7536280155181885 1.6243683723032798 4.55542556561207 2.7718396186828613 0.0 0.0 5.576224327087402" Properties=species:S:1:pos:R:3 pbc="T T T"
Au       5.37677715       1.80551399       8.18402153
Au       6.19282704       4.08099837       9.57487214
Au       5.37878171       1.80782751       5.39164526
Eu       2.95759464       0.09835409       4.01633212
Au       2.96902527       3.51504216       4.01620666
Au       2.95830670       1.80821240       6.80537232
