4
Lattice="2.6521647934274375 0.0009486303907008029 0.4185554746818222 1.2915020744613566 2.316263120033363 0.41855262810492583 -0.00944075724212495 -0.005617596149210213 8.67586479146411" Properties=species:S:1:pos:R:3:forces:R:3 structure_index=0 total_energy=-27.164461135864258 stress="-0.045875050127506256 -0.004015274345874786 0.00021205260418355465 -0.004015296697616577 -0.04107474535703659 0.0002281894558109343 0.00021205819211900234 0.00022797529527451843 -0.040674321353435516" pbc="T T T"
Cu       1.19960189       0.29003732       2.72437499      -0.00167054      -0.00101942       0.00936117
Rh       2.85284791       1.26139166       0.85256697      -0.00632788      -0.00391584       0.04698573
Fe       1.82926482       2.21674690       7.35247108       0.00021539       0.00024330      -0.00920461
Rh       2.17412402       0.86166573       5.17033539       0.00778306       0.00469196      -0.04714222
