14
Lattice="3.5111851692199707 0.0 -0.0008904432179406285 -0.0013347977814492462 6.058172555741242 -0.005397195462137461 0.0 0.0 10.606520652770996" Properties=species:S:1:pos:R:3 pbc="T T T"
Sr       1.87720249       0.20394029       8.97242118
Gd       0.12099616       0.25430312       1.85929818
Sr       0.12046668       3.22724653       3.25429925
O        1.87614804       1.84663594       1.57766621
O        1.87632457       1.36581377       6.76948187
Gd       1.87685073       3.28747449      10.36694376
O        0.12126336       4.87895078       0.03542372
O        0.12142256       0.96737200       4.06139166
O        1.87700868       4.00104305       8.16646958
O        0.12117046       4.39088968       5.45201581
Gd       1.87628505       5.92680353       5.04847638
Gd       0.12093915       2.90273029       7.17397530
O        1.87602084       4.98705276       2.74784658
O        0.12104223       1.96363112       9.47062139
