11
Lattice="2.951127052307129 0.0 0.5502288341522217 0.041022622451075616 6.73459815123264 0.29067131876945496 0.0 0.0 8.494708061218262" Properties=species:S:1:pos:R:3 pbc="T T T"
Al       2.79427209       0.55448518       6.94605906
Hf       2.73156738       3.49192387       7.50961442
Al       2.08027347       1.99634550       2.55546702
Cr       0.31665985       0.43221423       3.76849388
Al       1.60894549       5.34169309       5.46076882
Cr       0.39712388       3.95072003       3.58501107
Cr       1.13623223       5.70255003       8.12453362
Al       0.83861733       3.72147810       1.10427290
Cr       0.96833605       1.26690995       8.68842409
Al       1.62662719       2.30345159       5.09900951
Hf       2.17281527       5.94493825       2.33332026
