11
Lattice="3.005323709277393 -0.021155869218361135 0.5497340037261236 0.01529134017606995 6.623241773402921 0.17351908223097304 -0.02961652713969257 -0.154116213575959 8.645915503038376" Properties=species:S:1:pos:R:3:forces:R:3 structure_index=0 total_energy=-77.57111358642578 stress="0.014636202715337276 0.0007540411897934973 3.0027058528503403e-05 0.0007544612162746489 0.01424676924943924 -0.0007285203319042921 3.096415821346454e-05 -0.0007284891908057034 0.01570383831858635" pbc="T T T"
Al       2.83425655       0.44771166       6.99048827      -0.00002136       0.02505231       0.00937936
Hf       2.74931450       3.40810808       7.57311254       0.00273601       0.00635473      -0.01662633
Al       2.09785068       1.90650361       2.58660584       0.00428910       0.02217284      -0.02646242
Cr       0.31992597       0.40553209       3.75537623       0.00157445      -0.02828250      -0.00332743
Al       1.60154430       5.19628161       5.42412664      -0.00244425       0.02064161       0.02046758
Cr       0.38187128       3.78360713       3.54831275       0.00373183       0.01081154      -0.01751864
Cr       1.08761316       5.56676876       8.25008386      -0.00463604      -0.01705108       0.01907164
Al       0.85213880       3.59781566       0.97335692      -0.00029324      -0.01918712      -0.00675244
Cr       0.94265785       0.89129483       8.86215404      -0.00538224      -0.03271374       0.02432426
Al       1.62514587       2.20405813       5.18161529      -0.00528401      -0.02960256       0.02257451
Hf       2.17238640       5.68899319       2.32407247       0.00572984       0.04180399      -0.02513017
