12
Lattice="4.90242862701416 0.0 -0.0028159262146800756 -0.00715593073841121 7.990528240297418 -0.018311165273189545 0.0 0.0 9.719879150390625" Properties=species:S:1:pos:R:3 pbc="T T T"
Eu       1.93069710       4.10184345       6.40669814
Eu       4.37666745       7.73865386       1.54404410
Eu       1.93384721       0.10811554       7.98292832
Eu       4.38024998       3.74938982       3.11528616
Eu       1.93340895       1.08561802       4.07476544
Au       4.37947599       5.94489886       8.51110996
Eu       1.92834523       5.08890317       0.59019346
Eu       4.37816066       6.75911068       5.44502783
Eu       4.38059835       2.76197266       8.93511285
Au       1.92727373       5.89938244       3.66181380
Au       1.92786245       1.90097099       1.00123130
Au       4.38644788       1.94645145       5.86012364
