12
Lattice="4.897670269012451 0.0 1.4764386415481567 2.222447821715348 4.3640769257498055 1.4790352582931519 0.0 0.0 8.846352577209473" Properties=species:S:1:pos:R:3 pbc="T T T"
Eu       5.34539825       4.25272577       8.70357983
Eu       4.44432877       3.70201128       2.84892101
Ni       4.44482241       0.69866046       2.85695759
Mn       0.85218845       1.49828378       5.90333636
Eu       1.73641138       2.03981760       2.97468884
Ni       2.45613328       4.01763100       9.43103749
Ni       1.32014883       1.78660494       8.67734158
Ni       3.11208419       2.88390517       7.26088431
Ni       4.86575768       3.95716214       5.87949054
Ni       3.82532242       1.78641224       9.43252087
Ni       2.41908208       3.95741729       5.13910041
Ni       3.75287221       1.77844489       5.13829121
