9
Lattice="4.887227138683475 -2.595452691959172e-05 -0.0003856282783962794 2.5883950175761578e-05 4.887948220055076 -0.0015081016973306708 0.001328953157129272 -0.000505206572746212 13.08040424723435" Properties=species:S:1:pos:R:3:forces:R:3 structure_index=0 total_energy=-59.886993408203125 stress="0.004055015742778778 9.328539363195887e-07 -1.2731444257951807e-05 8.239474027504912e-07 0.0038780474569648504 -3.360065238666721e-05 -1.2656443686864804e-05 -3.354549335199408e-05 0.003540969453752041" pbc="T T T"
K        3.35953717       4.59663720       0.15768264      -0.00003826       0.00043467      -0.02403956
Eu       0.91605050       4.59795516       3.75297807       0.00006702      -0.00020281      -0.00293428
O        3.35970327       4.59807531       4.20514944       0.00004262       0.00007107      -0.00291422
Sb       0.91625826       2.15483957       6.09757730      -0.00003340      -0.00026069       0.00765055
Eu       3.35995052       4.59894688       6.63470163      -0.00009927      -0.00008052       0.00723895
K        0.91760596       2.15512395      10.26242020       0.00012605      -0.00010582       0.03411896
Sb       0.91584064       2.15323433       1.69499744       0.00018111       0.00030580       0.00884980
Sb       3.36136445       4.59919912       9.68652102      -0.00018479      -0.00032944      -0.02464262
Eu       3.35965165       2.15394380       3.75404065      -0.00006109       0.00016775      -0.00332760
