10
Lattice="5.418893814086914 0.0 -1.1050139665603638 -2.713970984483666 4.402585159775731 -1.6082062721252441 0.0 0.0 5.741423606872559" Properties=species:S:1:pos:R:3 pbc="T T T"
Zn       0.83283515       0.51625275       1.73525069
Fe       3.67349908       2.21307893       0.40480994
O        0.38301505       2.64112242       1.86855678
O        3.57274128       2.91844497      -1.66235818
Fe       4.44989951       1.30817616       3.37211215
Fe       1.77524545       3.08895353       3.24126925
O        2.62906212       4.07985571       0.76255959
O        2.85442417       0.77720733       1.91691298
Ge       0.88632924       3.40475393       0.12589365
O        4.55537181       0.63499644      -0.49854223
