16
Lattice="4.7973313331604 0.0 0.03874880075454712 -2.3757487620035813 5.639007386184173 -0.04513845965266228 0.0 0.0 15.209405899047852" Properties=species:S:1:pos:R:3 pbc="T T T"
Tl       0.94669003       0.63270868       4.63280599
In       0.94463288       3.60999617      10.87635283
Tl       0.94861609       2.54019156       7.60991991
Tl       3.33784012       1.35141331       9.98789695
Tl       3.35357027       1.08601029       2.34600102
In      -1.43181198       4.84152985       8.20843607
P        3.34980009       0.11752677       7.00840741
Tl       0.97508796       5.43048746      13.93486487
Tl      -1.42942937       4.41948027       1.34848079
P        0.96655974       3.39814472       2.98739053
Tl       3.35007402       2.92885103       5.25193850
P        0.95078878       1.07321656      12.27078976
Tl       3.35569368       3.04466750      13.19061281
P       -1.44115659       5.02570088      10.81186980
Pd       0.95688462       4.61465087       4.92256214
Tl       0.95957981       2.09720781       0.10540944
