16
Lattice="4.109692072103054 -0.007430499266010851 0.017716347140746935 -2.0380499646097343 6.880610362094022 -0.7508678215623288 -0.07554510645785344 -1.9265207217416027 16.30682779040865" Properties=species:S:1:pos:R:3:forces:R:3 structure_index=0 total_energy=-53.0541877746582 stress="0.0015580266481265426 -1.0962306077999528e-05 1.9862492990796454e-05 -1.0882533388212323e-05 -0.0025248979218304157 0.0016879785107448697 1.9912831703550182e-05 0.0016881227493286133 0.0013327692868188024" pbc="T T T"
Tl       0.78729537       0.09496128       5.03639928      -0.00027977      -0.00153103      -0.00988088
In       0.76243422       3.14356162      11.18678260       0.00086991      -0.00568968       0.00291577
Tl       0.77504748       1.85074082       8.03494598       0.00026727      -0.02026163       0.01209663
Tl       2.81539053       0.37285202      10.62228657       0.00065792      -0.00164954       0.01312821
Tl       2.85806368       1.37666550       2.34033816      -0.00011988       0.01645337       0.01218768
In      -1.27084215       4.92715444       7.88477057      -0.00011992      -0.00309595      -0.02442669
P        2.82903358      -0.65342685       7.58324318       0.00004592       0.00989042      -0.00363257
Tl       0.75961503       5.10847434      13.89935574      -0.00023223       0.01326094      -0.02101882
Tl      -1.24044977       5.14865277       1.28313402      -0.00017246       0.01066848       0.04065866
P        0.80479188       3.64027314       2.82930642      -0.00029280      -0.00404892       0.01283832
Tl       2.84663607       2.89472170       5.25713231       0.00027697       0.00544967       0.02568053
P        0.75260148      -0.50664326      12.92259507      -0.00084307      -0.02286963      -0.04342259
Tl       2.80905585       1.88473666      13.67571605      -0.00018537       0.01166406       0.00518127
P       -1.28681709       4.83459508      10.61716043       0.00029364      -0.02809856      -0.03176364
Pd       0.79795961       4.95753820       4.79171199       0.00001318       0.00237684       0.00433401
Tl       0.81630804       2.61505590      -0.09107033      -0.00017929       0.01748117       0.00512411
