4
Lattice="2.9107266779303944 7.333741800727825e-05 -0.9952322450127193 1.6266796800902976 2.6116810212060333 0.0051975844759500085 0.04654516470204259 -0.03349137574068288 4.919928612527357" Properties=species:S:1:pos:R:3:forces:R:3 structure_index=0 total_energy=-24.191253662109375 stress="-0.10938776284456253 0.00822273176163435 -0.034673068672418594 0.008218578062951565 -0.004142180550843477 0.014784944243729115 -0.03467152640223503 0.014788034372031689 -0.03095296025276184" pbc="T T T"
H        2.47432862       1.46621181       1.42604291      -0.01036151       0.02250100      -0.02742672
O        2.14487782       1.67543714       0.45412139      -0.00703978      -0.00299931      -0.01313777
O        2.93839407       1.18171498       2.80225203       0.00680424      -0.01269034       0.04396833
Fe       1.72826951       0.12065473       4.02139152       0.01059715      -0.00681116      -0.00340371
