10
Lattice="5.332968235015869 0.0 -0.0931188091635704 -2.6784096284430916 3.916028216750204 -2.4397575855255127 0.0 0.0 5.644446849822998" Properties=species:S:1:pos:R:3 pbc="T T T"
Fe       3.41730396       1.15549619       0.98388727
Fe       0.76220195       1.16424582       3.86125239
W       -1.90811924       3.46560690      -1.03090940
Mn       0.77205980       3.37786676       1.62587859
O        1.51453195       1.39128564       1.72568316
O       -0.28813647       3.03477850       3.70190040
O        5.10977706       0.20238739      -0.20354802
O       -1.11446908       3.06117814       0.74475621
O        2.65251324       1.70158517      -1.11661939
O        4.58917048       0.27592840       2.46513129
