15
Lattice="3.545462704634039 -0.005708304788194343 0.0012306195552374774 0.0155564820678026 8.118402642836646 -0.0005475225404423106 -0.004993573087237423 0.012103576401781726 8.116847316968348" Properties=species:S:1:pos:R:3:forces:R:3 structure_index=0 total_energy=-131.25685119628906 stress="0.0008946320158429444 7.776476559229195e-05 -8.34668317111209e-05 7.819905295036733e-05 -0.00509233633056283 -6.815529923187569e-05 -8.334628364536911e-05 -6.575389124918729e-05 -0.0053267329931259155" pbc="T T T"
O        2.45970951       0.24747602       6.86859425       0.04754955       0.01149531      -0.01484545
Eu       0.70134932       2.07031097       2.94714487       0.03267074       0.01522989      -0.01435807
Eu       1.93874315       2.52775361       6.78778556      -0.01767097      -0.01695248      -0.01129279
O        2.47104366       2.60213192       4.51008386       0.04373453      -0.01635326       0.01574463
Eu       1.94854452       6.34505011       2.49583359      -0.01878642       0.01087444       0.01049386
O        0.20349250       6.46754536       0.67249701      -0.04063897      -0.00248796      -0.01428873
Eu       0.70591226       6.80546518       6.33599132       0.03116759      -0.01630075       0.01505453
Fe       3.14795884       4.43369208       4.64233033      -0.00462236       0.00071149      -0.00107900
Fe       3.13810769       0.36857022       0.58448609      -0.00130808       0.00166288      -0.00141090
O        0.20232562       4.52459992       2.61765645      -0.04373297      -0.01157876      -0.00185466
O        2.46661512       0.50391263       2.41768033       0.04685272      -0.01444453       0.01295783
O        0.19965238       4.35210675       6.66530202      -0.04448441       0.01532372       0.00405774
O        0.19607083       2.39701750       0.49363675      -0.04075482       0.00328276       0.01283256
Fe       0.16638397       4.43226523       0.58338501      -0.03519986       0.00161935      -0.00206125
O        2.47450441       6.26667478       4.77416096       0.04522361       0.01791809      -0.00995035
