4
Lattice="3.0619913738331683 -4.1452916601877056e-05 -0.0006842246488448511 3.404011556131853e-05 3.061992128664511 0.0014238088341647819 0.001174232776945503 -0.0027633855715780216 5.988779111895197" Properties=species:S:1:pos:R:3:forces:R:3 structure_index=0 total_energy=-32.611202239990234 stress="0.012097129598259926 -0.00020598023547790945 0.0015284884721040726 -0.00020614545792341232 0.012145834043622017 -0.004270439501851797 0.00152863678522408 -0.0042710560373961926 -0.005212033167481422" pbc="T T T"
Mn       0.57088300       1.53943968       4.43802536      -0.00033441       0.00041627      -0.00068407
Ru       2.10133818       0.00938773       2.91834104       0.00077204      -0.00089967      -0.04490671
As       0.57018781       1.54099652       1.44345491       0.00036846      -0.00069443       0.00166193
Ru       2.10229703       0.00755378       5.95562556      -0.00080607       0.00117777       0.04392889
