4
Lattice="4.19787691124652 -0.005774474978713543 2.4296578265162094 1.405727533999509 3.955307843612103 2.4318315054122523 -0.002473015996960157 -0.003400053573283999 4.8521033047659845" Properties=species:S:1:pos:R:3:forces:R:3 structure_index=0 total_energy=-22.264305114746094 stress="-0.06497447937726974 0.021458730101585388 0.008723771199584007 0.021458568051457405 -0.09348873794078827 0.014088153839111328 0.008725114166736603 0.014089380390942097 -0.044271960854530334" pbc="T T T"
Tm       4.61836944       3.81870034       9.02217965       0.02192205      -0.00428518       0.00749691
Ir       0.42310591       0.86042875       1.73816467      -0.01474270      -0.00305727      -0.00225601
Tm       1.82197972       1.84616321       4.16680791      -0.01206206      -0.00554639      -0.00280685
Li       3.21811808       2.82796910       6.59526074       0.00488285       0.01288899      -0.00243402
