20
Lattice="4.562671184539795 0.0 -0.04636165872216225 0.14768229735563657 6.758838061850832 -1.5555988550186157 0.0 0.0 6.8858561515808105" Properties=species:S:1:pos:R:3 pbc="T T T"
Co       3.17423142       5.86454382       1.21164813
Co       1.56832870       0.85527797       4.10186321
Co       3.13989107       2.80578071       5.13031436
Ti       3.75827935       0.03003939       5.05896882
Co       3.21569285       4.35993371       3.24658476
Co       3.94744239       3.44703565       0.90667497
Co       0.87859922       3.56172278       4.29653379
Co       0.78487347       1.71914257       6.42034389
Co       3.12399032       0.82054786       0.66370957
B        2.50806170       2.49957283      -0.01007673
Ti       1.67210843       5.87333866       4.75288472
C        0.12708629       1.89543209       4.68819600
Co       0.78081198       0.03793378       1.66130772
C        0.15867844       5.12184378       0.52848611
Ti       1.59470222       2.74558316       2.03818262
Co       3.86580926       1.80309542       2.93769647
C        2.36771216       0.78251065       2.38467317
Co       0.93054114       5.16494700       2.28165956
Co       3.93447127       5.12227717       5.62035338
Co       1.64841035       4.26188276      -0.20433616
