6
Lattice="3.958989381790161 0.0 0.0006548911915160716 0.00186878045658141 4.279163906206634 -2.470921039581299 0.0 0.0 4.939999580383301" Properties=species:S:1:pos:R:3 pbc="T T T"
Gd       1.99838828       0.35842481       3.44755848
Co       1.99838853       1.78495269       0.97634062
Co       0.01823840       0.35726720       0.97577639
Co       0.01984740       2.49726719       2.21111459
Co       0.01962761       2.49808159      -0.25849873
Ni       1.99969918       3.21156464      -1.49510482
