4
Lattice="4.185777428209478 0.026727169716982118 -1.6271283361448374 -0.8218563864369199 4.436296958205308 -2.0408811270810086 -0.02679749226058996 0.06337049383482235 6.163319804765174" Properties=species:S:1:pos:R:3:forces:R:3 structure_index=0 total_energy=-16.33755111694336 stress="-0.018174057826399803 -0.0026652950327843428 0.013523979112505913 -0.0026651613879948854 0.01861852966248989 -0.0042649214155972 0.013524143025279045 -0.004265157040208578 0.01296937931329012" pbc="T T T"
Ge       1.20923529       0.39935334       2.25491198      -0.00437160      -0.00619932      -0.00851770
Cd      -0.68015308       3.46377835       3.67890408       0.01594831       0.02083326       0.03666887
Ba       2.37463056       1.91824525      -0.91894892       0.00000870      -0.00304846      -0.00333732
Rh       3.55097084       0.75114770       2.08679617      -0.01158540      -0.01158549      -0.02481386
