9
Lattice="4.629320240820508 -0.04173646312277968 0.038229840696884475 -2.2589764175069393 5.678907850090827 -0.7230975352554085 -0.0683841647411523 0.14379538180441415 8.3477183385954" Properties=species:S:1:pos:R:3:forces:R:3 structure_index=0 total_energy=-43.88784408569336 stress="-0.006523135118186474 -0.0014717114390805364 -0.0003183893277309835 -0.0014717645244672894 -0.004527744837105274 -0.005871381610631943 -0.000318332138704136 -0.005871125962585211 -0.004826014395803213" pbc="T T T"
Sb       0.96719627       2.01607531       4.79225348       0.00067035       0.04092550       0.00374495
Pd       3.27721724       2.84432701       6.21708419       0.00099410       0.04907115      -0.01281396
Ba       0.98531769       5.33076513       6.04034958       0.00016597       0.02516143       0.01290722
Pd      -1.28041889       5.01074670      -0.19826182       0.00065825      -0.00548418       0.01204321
Pd       3.29825977       2.56138340       3.48939879      -0.00086644      -0.04108150      -0.00892450
Pd       0.94428446       2.12877023       7.61959381       0.00023637       0.01674111      -0.00816508
Ba       1.01651080       5.00517818       2.08810643      -0.00110010      -0.03216899       0.00111808
Pd       0.98826533       1.75310757       2.02098464      -0.00094287      -0.03093897       0.00581789
Sb       3.32018821       2.43196348       0.67731515       0.00018444      -0.02222559      -0.00572783
