9
Lattice="4.127202987670898 0.0 -0.0007598298834636807 2.05800374670457 4.190884228232044 1.0153495073318481 0.0 0.0 6.286901473999023" Properties=species:S:1:pos:R:3 pbc="T T T"
Si       2.91888999       2.96581844       5.58377380
Fe       0.85771961       1.54502293       5.16730202
Fe       2.92055121       3.79561205       1.53690711
Fe       2.92179633       2.05707410       3.32566256
Fe       4.98281903       2.51960269       1.25020129
Si       4.98306686       3.35436464       3.49305284
Fe       2.92268681       0.06826000       4.73792366
Fe       0.85935911       0.58056910       2.89760317
Pt       2.92285433       1.06237638       0.88797551
