8
Lattice="2.911754280570355 -0.0007898056293305394 -0.4959763094068341 -0.17033701501993026 4.065732215819841 -1.0066585126252823 -0.0063715546378157115 0.0063008225326633945 8.75787684549658" Properties=species:S:1:pos:R:3:forces:R:3 structure_index=0 total_energy=-65.67562103271484 stress="-0.009409405291080475 8.83318207343109e-05 0.013624690473079681 8.770004933467135e-05 0.071917325258255 -0.0020474290940910578 0.013624551706016064 -0.00204701186157763 0.06874602288007736" pbc="T T T"
Fe       1.75119297       2.89215273       0.93584250      -0.00520553      -0.01014448       0.00556762
Fe       1.49214804       0.36286810       8.22434398       0.00034388       0.00317670      -0.00063046
Fe       0.62780143       3.39195222       3.14646312       0.00461196       0.00725952      -0.00086527
Fe       1.06949702       1.89365706       5.74222580       0.00559626       0.01481993       0.02089024
Fe       2.19379385       1.39713806       3.53864866      -0.00842822      -0.01425318      -0.01928566
Fe      -0.04928894       2.39657323       7.96759007       0.00196021      -0.00220395      -0.00076882
Rh       2.43281044       3.91746015       4.94761959       0.00187027      -0.01012049       0.00700820
Rh       0.38820260       0.86971471       1.73704126      -0.00074882       0.01146601      -0.01191580
