8
Lattice="3.246943712234497 0.0 -0.7374267578125 -0.041714690017284256 4.027723785023538 0.018202150240540504 0.0 0.0 7.425280570983887" Properties=species:S:1:pos:R:3 pbc="T T T"
Cu       1.83500564       2.25268505       6.16365013
Pr       2.60172248       2.25050208       2.04614734
O        0.53413440       2.25302571       0.47639255
Cu       0.51647320       0.23478012       0.29077817
Cu       1.43556736       0.24067951       4.28666611
O        1.86773235       0.23366621       6.18084806
O        1.39137690       2.25457993       4.20433158
O        0.99537634       0.23882001       2.38523852
