4
Lattice="5.828518217998804 0.00040215289183059654 0.0011406488176560717 -0.0007032204691040053 5.824816788679312 0.0010523873554512584 -0.0006470674285395495 -0.0006139683880503286 5.824962774534703" Properties=species:S:1:pos:R:3:forces:R:3 structure_index=0 total_energy=-32.566429138183594 stress="0.00560457119718194 -0.00019860072643496096 0.0003216459008399397 -0.00019862201588694006 0.0030414580833166838 0.00029575248481705785 0.0003216309705749154 0.00029576278757303953 0.003139105159789324" pbc="T T T"
Eu       0.34053676       2.15338554       0.22436014       0.00021266       0.00038395      -0.00033746
Eu       3.25552529       5.06643405       0.22684738      -0.00021728       0.00010781      -0.00118338
Ba       0.34072864       5.06612468       3.13650532       0.00018461       0.00026084       0.00135140
Eu       3.25549087       2.15513887       3.13747954      -0.00017998      -0.00075261       0.00016944
