15
Lattice="4.3301825523376465 0.0 1.2058391571044922 1.7561131687386926 6.326095234422243 1.8577238321304321 0.0 0.0 5.870654582977295" Properties=species:S:1:pos:R:3 pbc="T T T"
Fe       1.73852319       2.33590858       5.00144517
Fe       4.79224485       3.86361281       7.89637331
Zn       0.51690460       0.44566220       3.74986220
Fe       1.66396284       5.77461604       2.02610011
Fe       4.08187111       2.88576367       4.31062313
Fe       3.62876996       1.88782650       6.70341513
Zn       2.96944598       0.92929551       3.13577099
H        2.03813700       2.86536322       6.69787335
Fe       5.39753540       4.89275115       5.61308784
Fe       4.13408728       6.25354852       7.39454285
Fe       2.40747608       3.41122906       2.52548911
Fe       1.11638747       1.36895643       1.38488526
Fe       3.54416650       5.28406738       3.78216802
Fe       2.97208667       4.36002977       6.11140024
H        1.23812170       3.34858696       3.74060988
