3
Lattice="4.08820807729064 0.00010886103606947336 0.0006357737326810525 -0.000192959587325082 3.6448894617153784 -2.1044729998013234 -0.00020998901100016958 0.00068511644383223 4.209110835063574" Properties=species:S:1:pos:R:3:forces:R:3 structure_index=0 total_energy=-20.435504913330078 stress="0.032324809581041336 -0.0012242537923157215 0.0023163878358900547 -0.00122421036940068 -0.0684790313243866 -0.0011338538024574518 0.002316209254786372 -0.001133711077272892 -0.07174155861139297" pbc="T T T"
Li       4.08431841       0.64898192       3.42555911       0.00432149       0.00163302      -0.00594099
P        4.08471593       1.86397135       1.31953475       0.00123431      -0.00031092       0.00461707
Eu       2.04246852       3.07908830      -0.78494250      -0.00555585      -0.00132210       0.00132391
