9
Lattice="3.582272381810602 0.000949812893579943 -0.5629280774980231 -0.0893896344117817 3.5811730724337516 -0.5627970692619592 0.010239855303122334 0.010098899478519462 11.745875531073196" Properties=species:S:1:pos:R:3:forces:R:3 structure_index=0 total_energy=-86.96745300292969 stress="-0.033810388296842575 -0.0002674745046533644 -0.0015404291916638613 -0.00026703448384068906 -0.033934276551008224 -0.0015772677725180984 -0.0015401203418150544 -0.0015778893139213324 -0.04329744726419449" pbc="T T T"
Eu       0.75145609       3.37383387       7.06381669      -0.00399229      -0.00431143      -0.02474522
O        2.59321574       1.58981278       7.09915975      -0.00572853      -0.00603189      -0.02860088
Eu       2.20154154       1.18842372       4.61361584       0.00478091       0.00404454       0.02528759
Eu      -0.02374753       2.57864023       2.13519656      -0.00605541      -0.00596128      -0.04310966
Fe       1.51620652       0.48496594       0.24739045       0.00001881       0.00051005      -0.00003404
O        1.81288407       0.78925324       2.14076621       0.00323412       0.00371306       0.01589781
O        1.22982921       0.19097664      10.09992427      -0.00366470      -0.00347637      -0.01694840
O        0.36000111       2.97270896       4.57817823       0.00536431       0.00500814       0.02940187
Eu       2.97697088       1.98281065       9.54248860       0.00604290       0.00650518       0.04285100
