4
Lattice="3.1262964515002807 -0.003377942502538873 0.003220574097810931 0.003403896776828948 3.126950763041689 -0.0022384786655225905 -0.008929953477965985 0.006228836299393739 8.551277321742333" Properties=species:S:1:pos:R:3:forces:R:3 structure_index=0 total_energy=-34.27527618408203 stress="-0.04264387488365173 0.00015434634406119585 -0.0007801758474670351 0.0001544591796118766 -0.025786569342017174 0.0005078875692561269 -0.0007800451130606234 0.00050807383377105 0.08939328789710999" pbc="T T T"
Hf       1.51095729       1.55219989       7.63655211      -0.00074721       0.00032308      -0.01122629
Hf       3.08207560       3.10940032       1.34994032       0.00087624       0.00018898       0.00058570
Hf       1.51515024       1.54939149       3.61402688      -0.00075844       0.00002846       0.00874626
Al       3.07769223       3.11276692       5.62538063       0.00062942      -0.00054052       0.00189432
