7
Lattice="6.152639865875244 0.0 -1.9902540445327759 -2.8661434206808 5.3644402565518705 -2.2144436836242676 0.0 0.0 6.45351505279541" Properties=species:S:1:pos:R:3 pbc="T T T"
Eu       0.88155103       1.96221677       5.01196411
Eu       3.95818388       1.95656111       0.78793909
Ge       3.95910856       1.96360174       4.02078088
Ge       2.52292135       4.63865494      -0.31919691
Eu      -0.55261229       4.63689154       0.67912624
Eu       2.52872748       4.64165351       2.90520288
Cl       0.88214326       1.95350418       1.78205029
