9
Lattice="3.834584999111076 0.0018653611333515263 -0.0012956886080822251 -0.0036424334455030668 5.232309446745109 -3.0134991878255697 0.001948060562123886 -6.778119231102204e-05 6.038251491778544" Properties=species:S:1:pos:R:3:forces:R:3 structure_index=0 total_energy=-66.33819580078125 stress="-0.03040895238518715 0.0003469230141490698 0.00023448679712601006 0.00034741879790090024 -0.03701408952474594 0.0041446383111178875 0.00023303591297008097 0.004144697450101376 -0.04607434943318367" pbc="T T T"
Li       2.79802543       0.01531094       1.08775332       0.00097131       0.00372150      -0.00499473
F        0.87387839       1.61684821      -0.33667540      -0.00149091       0.02342599      -0.01762968
Eu       2.79273145       1.75934065       4.11001185      -0.00155533       0.00047664      -0.01064503
F        2.79150013       1.92254109       1.67859297       0.00292813      -0.02086064      -0.03288250
F        2.79008159       3.78316582      -0.57352289       0.00190032       0.04863442       0.00496110
F        2.79077181       4.80477785       2.16582133       0.00079223      -0.02553632       0.03918058
Eu       0.87361188       3.50242409       1.08988217       0.00080773      -0.00195610       0.02140845
F        0.87546143       0.45212676       3.19346427      -0.00087513      -0.00440366       0.02100373
F        0.87489116       3.20559194       3.43784242      -0.00347834      -0.02350172      -0.02040171
