11
Lattice="3.3152754306793213 0.0 0.2133304327726364 1.35317535983598 2.890051393243049 0.20557093620300293 0.0 0.0 14.460471153259277" Properties=species:S:1:pos:R:3 pbc="T T T"
O        3.55040302       0.87999364       2.82691069
Fe       1.42196736       1.64583474       6.77052610
F        2.15109370       2.01927394       0.28383611
Mg       0.51622913       1.02046888       0.77675611
Fe       2.40945020       2.22671398      12.21556798
Mn       3.26733810       2.76483972       3.95158397
Fe       2.86533415       0.44958372       9.77469613
O        2.69792741       0.34238441      12.15931956
O        2.53913025       2.31445951      10.02253966
O        3.10158041       0.63853509       7.41994210
O        1.64229322       1.75341124       4.92721845
