12
Lattice="6.681625860700808 0.0018275472871758524 3.3336919862760417 2.481954964853536 6.2149851534306295 3.310118707285824 -0.19595378759272833 -0.09601797194300965 8.195566586414861" Properties=species:S:1:pos:R:3:forces:R:3 structure_index=0 total_energy=-114.77403259277344 stress="0.018479179590940475 0.0016369925579056144 -0.005919400602579117 0.0016365746269002557 0.014381560496985912 -0.001773456926457584 -0.005919626913964748 -0.0017726616933941841 0.015737036243081093" pbc="T T T"
N        4.46770943       5.89712400      10.15984456      -0.00049052      -0.00064676       0.00178316
Li       6.66452245       2.83855734       6.07161590      -0.00165686      -0.00225580       0.00447364
Eu       5.65722397       4.57967148      11.91639987       0.01086711       0.03020902      -0.01716619
Eu       2.16811553       4.33173721       6.71305780       0.00459933      -0.00053670      -0.00005202
Eu       5.25409072       4.29395765       8.41240091      -0.03660131      -0.00032526       0.01824438
Eu       2.33927488       4.45944386      10.23226748       0.02276026       0.01107785      -0.01204740
Eu       0.79676240       0.99983696       5.09396896      -0.01217096      -0.02715197       0.01354309
N        3.22741589       2.78938577       8.50564037      -0.00202749       0.00159721       0.00001253
Eu       1.19989444       1.28553327       8.59766540       0.03594030      -0.00026866      -0.01834918
Eu       4.11298170       1.11988907       6.77948628      -0.01620330      -0.00904683       0.00640690
Eu       4.28588740       1.24866995      10.29691967      -0.00411184       0.00009043       0.00303139
N        7.80888082       5.89900765      11.82736711      -0.00090471      -0.00274231       0.00011978
