9
Lattice="2.9275925159454346 0.0 -0.0136243412271142 -0.0624204843996112 5.282902558903586 -3.042896270751953 0.0 0.0 6.110879421234131" Properties=species:S:1:pos:R:3 pbc="T T T"
Mn       2.77667722       1.86130963      -0.57538124
P        2.74564330       4.89369113       1.74763719
Mn       1.30001913       3.13445118       1.15682928
Mn       2.76531109       3.13274576       3.33560545
Mn       1.27505483       5.25671195      -2.52338055
C        1.29998486       3.12350576      -1.30035159
Mn       1.32560060       1.01234753       3.58168592
P        2.78497004       1.36782291       1.73874363
Mn       2.75017230       4.39970816      -0.57107675
