14
Lattice="5.304912034657898 0.08027631236159137 0.0272919218731739 0.24130072347942524 5.352667914196463 -0.0009658774961298725 -0.006376856445308641 0.002310622622891771 5.7970637391927" Properties=species:S:1:pos:R:3:forces:R:3 structure_index=0 total_energy=-96.112548828125 stress="-0.0030088580679148436 -0.007153145968914032 0.0012259322684258223 -0.007151193916797638 -0.006876382045447826 0.00016495154704898596 0.0012288456782698631 0.00016639562090858817 -0.015777939930558205" pbc="T T T"
Mn       3.16839108       2.78339422       3.49851494       0.01665568      -0.01146357      -0.00133424
Mn       2.97015802       0.11282147       4.94771710       0.00034493       0.00009266       0.00229269
Mn       2.97356093       0.11178265       2.04939359      -0.00189966      -0.00149509      -0.00006352
O        1.91536407       0.85471020       0.59841794      -0.00319257       0.03177452      -0.00072065
Li       0.87656360       4.57368763       3.49323326      -0.00045634       0.04871774      -0.00483806
O        2.21329124       3.78188908       2.09253552      -0.02170116       0.01176811       0.02019689
O        4.27291231       4.72061573       3.49928680       0.00024642      -0.02594990       0.00173281
Mn       3.01993776       2.79270507       0.59973701      -0.01578972       0.01078660      -0.00296137
O        3.97537622       1.79471303       2.00555900       0.01791582      -0.01743910      -0.02127202
O        1.90880816       0.80600128       3.49737740       0.00223450       0.02799436      -0.00194308
Li       5.31053378       1.00026873       0.60640219       0.00736606      -0.04531036       0.00269840
O        4.27911043       4.76993062       0.60013298       0.00049902      -0.02951002       0.00324058
O        2.20952128       3.78243034       4.90260850      -0.02160880       0.01609380      -0.02737031
O        3.97236164       1.79564972       4.99229475       0.01938632      -0.01605947       0.03034181
