8
Lattice="6.627504348754883 0.0 3.8332149982452393 2.2062606314216286 6.246561152921177 3.8371589183807373 0.0 0.0 7.65722131729126" Properties=species:S:1:pos:R:3 pbc="T T T"
Eu       4.31988036       0.03311071       5.21490269
Eu       5.42526987       3.15443293      10.96441486
Eu       1.00856128       0.03349574       3.30128338
Eu       4.32137632       0.03122831       9.04696730
Eu       2.11079494       3.15417305       9.04090817
Eu       1.00868922       0.03339969       7.12933167
Eu       2.10996241       3.15348350       5.22546963
Y        5.41844907       3.15432049       7.12687113
