12
Lattice="5.259400655175289 0.007236453307236164 -1.9014578104009068 -2.8919040049772264 4.583606957572023 -1.548228270921498 0.0056803710291804446 -0.009884705006961383 5.650978532855994" Properties=species:S:1:pos:R:3:forces:R:3 structure_index=0 total_energy=-78.2559585571289 stress="0.05601339414715767 0.008997318334877491 0.0070977769792079926 0.008997099474072456 0.048584409058094025 -0.010061172768473625 0.007098241243511438 -0.010061065666377544 0.05440964922308922" pbc="T T T"
O        0.36338110       1.52310285       0.71301942       0.02819132      -0.01207773       0.01441819
Fe       1.36110836       1.84342821      -0.88049420      -0.01550034       0.01326805      -0.01420597
F        2.67023607       2.12745211       3.05176821       0.00236630      -0.01938546      -0.01280994
Cr      -0.52385863       2.83779031       1.88367494      -0.01726626      -0.02004272      -0.01821852
O       -0.87679346       4.11997567       0.37289224       0.01979045      -0.02556525       0.02582996
Cr      -2.46309212       4.17104327      -0.70438873       0.01983964       0.00018784       0.01589546
O       -0.10834909       1.76919802       3.54184169      -0.02484088       0.01493242      -0.01692581
Fe       3.45464668       0.80374533       1.67404994       0.01137142       0.00126247       0.01080881
O        3.05936452       1.81409564       0.09169295      -0.01009470       0.02089931      -0.02826141
F        1.57006512       3.89780894      -1.04061704      -0.00105964      -0.00163427       0.00436220
F       -1.39905818       4.27373180       3.21567702      -0.00668731       0.03092581       0.01566611
F        1.14963690       4.07236442       1.86250345      -0.00611027      -0.00277038       0.00344093
