11
Lattice="4.305343151092529 0.0 -0.09321959316730499 -2.149733407037929 7.431301858619395 -0.37943169474601746 0.0 0.0 10.618901252746582" Properties=species:S:1:pos:R:3 pbc="T T T"
Cl       1.81456200       1.63679337       7.28671233
Te       1.78640530       0.10551333       4.48765312
Cl       3.96472406       1.00588111       0.57214165
Te       1.83077054       6.86722118       8.00127574
Te       1.97834623       5.67605202       5.31774826
Te      -0.36832951       3.62269308       6.21347061
Te       1.80421671       3.02151838      10.30263241
Te       1.80387823       4.39375946       2.08880568
Te      -0.32732976       6.30947232       1.56122440
Te      -0.33500397       5.09403404       9.01318592
Cl      -0.33394595       2.41505165       3.87505045
