6
Lattice="4.124352620180455 -0.0009286723800387292 0.00032852197830171093 0.00113893819657511 4.196540909496827 -2.4236512449364507 -0.00039167158678883005 0.0002205461856709278 4.8458768865959705" Properties=species:S:1:pos:R:3:forces:R:3 structure_index=0 total_energy=-48.1754264831543 stress="0.07974688708782196 -0.0017369353445246816 -0.0006450946675613523 -0.0017372448928654194 -0.08201096206903458 -0.0022211475297808647 -0.000644888321403414 -0.0022213272750377655 -0.08456628769636154" pbc="T T T"
Gd       2.08146820       0.35120435       3.38148167      -0.00112315      -0.00014150      -0.00882371
Co       2.08145321       1.75005375       0.95773638       0.00272349      -0.00236458       0.00221297
Co       0.01894304       0.35044810       0.95729792       0.00362750      -0.02385227       0.00347264
Co       0.01986086       2.44927446       2.16922655      -0.00206378       0.01547163       0.02622011
Co       0.01987880       2.44996453      -0.25372305      -0.00017820       0.01444444      -0.03081939
Ni       2.08248696       3.14898756      -1.46643294      -0.00298583      -0.00355762       0.00773735
