12
Lattice="4.063140240447646 0.001463118683336554 0.0022408930976929695 -2.032793605034493 3.518959843608683 8.445163255747314e-05 -0.0066965596886073755 0.002002274704900873 10.231009818804882" Properties=species:S:1:pos:R:3:forces:R:3 structure_index=0 total_energy=-90.17662048339844 stress="-0.03495628759264946 -0.0005421367241069674 0.0006578153697773814 -0.0005416542990133166 -0.03558824583888054 -8.091657946351916e-05 0.0006581213674508035 -8.05253439466469e-05 -0.03827602416276932" pbc="T T T"
Fe       2.33285919       2.58094448       6.61454742       0.00408792      -0.00441104       0.02123720
Fe       2.33337691       0.23104002       9.96052785      -0.00469580       0.00159328       0.00570656
Fe       2.33395322       0.23288771       7.52018643      -0.00190095       0.00249716      -0.00400277
Fe       0.30244613       1.40757774       5.73619572      -0.00252998       0.00013590      -0.01299888
Ge       0.30707679       1.40148063       0.44603546       0.00034387       0.00431230       0.00580519
Fe       2.33694118       2.57601879       1.48007559      -0.00053770       0.00292459       0.02940354
Fe       2.33419089       2.58111916       3.99775943       0.00115470      -0.00466024       0.01684901
Fe       0.30170916       1.40472710       8.21562031      -0.00037206       0.00209265      -0.01317709
Ge       2.33662015       0.23121516       2.32229053       0.00148889      -0.00166792      -0.00735936
Fe       0.30383223       1.40490881       3.15601764       0.00044798       0.00047716       0.00084383
Fe       2.33255762       2.57795553       9.13681062       0.00026148       0.00160025       0.00724116
Ge       2.33435178       0.23563369       5.07592461       0.00225173      -0.00489406      -0.04954839
