15
Lattice="5.184173107147217 0.0 0.29338914155960083 0.71299266613228 4.664839940812636 2.3611207008361816 0.0 0.0 7.410033226013184" Properties=species:S:1:pos:R:3 pbc="T T T"
Li       1.75995896       0.65299183       3.99676239
O        0.77590504       1.83123372       5.40853269
Li       2.96336073       3.78119558       3.12599390
O        4.78540778       3.79929692       2.74597674
Fe       4.92270805       0.35958019       6.50724592
F        3.25734787       0.76819750       5.47788587
Fe       2.25404334       2.30555398       6.56601055
O        1.39981423       3.56099928       7.71051020
Fe       5.31266467       3.33750847       4.60590521
Fe       0.35364979       2.15508337       1.54761881
F        5.20792776       0.47138405       2.99041143
F        3.23043494       3.62699330       5.36867738
F        3.93451538       1.92269844       7.69625625
F        1.37157519       0.72049159       7.67134490
F        1.93257442       2.29721520       2.98040440
