16
Lattice="5.232246398925781 0.0 0.00046382815344259143 -1.6479373493888547 4.954688341774271 -0.009898564778268337 0.0 0.0 6.126092910766602" Properties=species:S:1:pos:R:3 pbc="T T T"
Mn       0.25926484       4.21223208       2.57094247
O        2.10071564       2.99416257       2.46729999
Mn       2.88379422       4.16550587       0.98470204
O        0.14905930       0.63735876       2.70061787
O        2.87574328       0.33406963       0.92779968
Mn       1.06304192       1.74312046       4.16017758
Li       1.06315258       1.70374749       1.01495265
Li       2.89091198       4.22890451       4.13283963
Li       3.66860795       1.69756683       5.64156372
Mn       0.27094305       4.16797447       5.63290150
Mn       3.68528210       1.74968770       2.57968247
O       -0.51154664       2.96205984       4.20204383
O       -0.76803220       2.95088868       1.11702594
O        2.72944279       0.65312802       4.02832907
O        1.82568013       2.97252548       5.54497989
O        0.28201243       0.30705852       5.74432296
