8
Lattice="3.6403156086095243 0.0013952681651855795 0.000872213713158575 -1.8217561327055884 3.1519401870283574 -0.0010525440019227702 0.004261599561277962 0.0032877639759670485 12.522112297385473" Properties=species:S:1:pos:R:3:forces:R:3 structure_index=0 total_energy=-77.17119598388672 stress="0.029766563326120377 -0.0005736849270761013 5.333293302101083e-05 -0.0005735941813327372 0.030081691220402718 0.0010386559879407287 5.2695420890813693e-05 0.0010391792748123407 0.04325518757104874" pbc="T T T"
Eu       0.96676210       2.59390376       8.23644533      -0.00199952       0.00013598      -0.01306212
Eu       0.96471997       0.49156148       1.87508711      -0.00084492      -0.00052969       0.01007956
Eu       0.96263021       2.59363135       4.59632673       0.00078996       0.00018528       0.02521604
N       -0.85608268       1.54188543       3.23011399      -0.00183379      -0.00029903       0.02235225
Eu      -0.85455317       1.54294718      10.96669175       0.00210418       0.00046778      -0.00466943
N        0.96668426       0.49252236       9.62415663       0.00176759       0.00028493      -0.02044423
F        0.96243610       2.59281741       0.17098070       0.00001774      -0.00074511      -0.01568787
F        0.96413156       0.49148381       6.31479751      -0.00000139       0.00049976      -0.00378425
