20
Lattice="5.425553243899267 0.031680294271521955 1.6105627179907016 2.4494544987049163 4.841812422174678 1.6013943642095858 0.04345377847938991 0.041740079971073686 9.782670029392689" Properties=species:S:1:pos:R:3:forces:R:3 structure_index=0 total_energy=-173.4579315185547 stress="0.011652130633592606 -0.00017174702952615917 0.0009465320617891848 -0.00017196410044562072 0.0118027962744236 0.000569613475818187 0.0009465274051763117 0.0005707129021175206 0.009316225536167622" pbc="T T T"
Eu       6.27937204       2.82291504       6.99084109       0.01336541       0.00821107      -0.04211555
Eu       4.16888099       1.52047499       4.18306309       0.00274641      -0.00196383      -0.00884759
Fe       1.75082134       3.34151202       2.34863455       0.00918562       0.00364666      -0.02984277
W        5.24233092       2.18542441      10.49321673      -0.00032628       0.00190459       0.00141196
Eu       2.87020916       4.05007752       8.50813387       0.00969497       0.00919586      -0.03963131
O        5.23882165       0.73039503       6.51687972      -0.01025127       0.00792522      -0.00489758
Eu       2.17344030       0.26796074       0.98689478       0.00019495      -0.00181811      -0.00109167
Fe       3.74097380       4.57985631       5.56527282       0.00453248       0.00070759      -0.01870402
O        1.25188080       1.22070170       7.96997114      -0.01430279      -0.01363611       0.01185888
Mn       3.26903109       0.96397866       7.22661650      -0.00129642       0.00073151       0.00576010
O        2.53756808       4.34117813       3.89319012      -0.00116155      -0.00346412       0.01126216
O        3.75739109       3.09943458      11.41739777       0.00871623       0.00119424       0.02341843
O        5.29155579       3.62816050       4.58100452      -0.00337210      -0.00783658       0.01019558
O        3.07348365       2.82236003       6.24358813      -0.00179046      -0.01144913      -0.00163262
O        4.08831669       2.00800784       8.94437942      -0.01207507       0.01408865       0.01461661
O        6.39415370       2.40441974      12.07977271      -0.00559860      -0.01787309       0.01671994
O        1.94606160       1.55719457       3.23140345       0.00018927      -0.00688140       0.00375754
O        4.93157358       4.77895920       7.16170218       0.01284972       0.00712723       0.00146872
O        4.61854099       0.43149007      11.15342825      -0.01933753       0.01101983       0.01946279
O        5.89501161       3.89938279       9.85898813       0.00803658      -0.00083029       0.02683023
