15
Lattice="3.63842511177063 0.0 0.0034757868852466345 0.029103890967572394 8.158629005531525 -0.01269850879907608 0.0 0.0 8.161490440368652" Properties=species:S:1:pos:R:3 pbc="T T T"
O        2.44593275       0.22797380       6.94156654
Eu       0.66363003       2.06980748       2.96728696
Eu       2.05170116       2.55438090       6.83059456
O        2.46739373       2.64767227       4.51293789
Eu       2.06461187       6.36344583       2.49272411
O        0.28906186       6.50585658       0.68846164
Eu       0.67987796       6.83550435       6.35527183
Fe       3.21731675       4.45300577       4.66466467
Fe       3.19281074       0.37411088       0.58836445
O        0.29343449       4.55335251       2.62962065
O        2.45527249       0.52305083       2.39999728
O        0.29429375       4.35010199       6.68987377
O        0.27568587       2.39838884       0.47382080
Fe       0.25983202       4.45196549       0.58147766
O        2.47901814       6.26137953       4.80644657
