17
Lattice="5.337092399597168 0.0 0.0021126901265233755 -0.0021179359554514103 5.336954650251025 -0.0006466273334808648 0.0 0.0 7.25355339050293" Properties=species:S:1:pos:R:3 pbc="T T T"
Mn       3.88760680       2.74386812       3.36273424
Mn       2.68260090       1.39551742       5.15096984
Mn       2.68266223       1.39647333       1.62199328
Mn       2.68120338       4.06338286       1.72557018
Pt       0.01199021       1.39460572       5.14842855
Mn       2.68188646       4.06316019       5.04555828
Mn       1.32836213       2.68597418       7.03483695
Mn       1.47652516       0.04439622       3.36154808
Mn       3.89213873       0.04708750       3.36191101
Mn       4.03209431       2.68673318       7.04071784
Mn       1.33335376       0.10518025       7.03561511
Mn       1.47497116       2.74426098       3.36263584
Mn       4.03204883       0.10148583       7.03893160
C        2.68260660       4.06253797       7.02373330
Pt       0.01413738       1.39557929       1.62706392
Mn       0.00809112       4.06697175       1.65135117
Pt       0.01073391       4.06327312       5.12832576
