16
Lattice="5.268501140914473 -0.022210407213879197 -0.010747199013936476 -1.68036364044415 4.988252742696878 -0.04842882854551407 -0.01312644843949954 -0.05200121303578714 6.128288822671205" Properties=species:S:1:pos:R:3:forces:R:3 structure_index=0 total_energy=-110.74819946289062 stress="-0.02691924013197422 0.005327404011040926 -7.534411270171404e-05 0.005329745821654797 -0.023584183305501938 0.0010912944562733173 -7.46314981370233e-05 0.0010914206504821777 -0.019903196021914482" pbc="T T T"
Mn       0.24926569       4.21654592       2.53391923       0.01211002      -0.00050487      -0.00422259
O        2.06031349       3.03746198       2.42110138      -0.00027616       0.02160762      -0.01589665
Mn       2.88534624       4.16191948       0.95664665       0.00561631      -0.01305794       0.01339818
O        0.21549970       0.58231799       2.70200100       0.02558713       0.00708058       0.00481951
O        2.92188207       0.32591407       0.94697972       0.03005378      -0.00826859       0.02493730
Mn       1.06015636       1.70053359       4.13180961      -0.00463476      -0.00155190      -0.00491295
Li       1.03961718       1.71161891       0.99053583      -0.01285520       0.02388139      -0.00079794
Li       2.87987520       4.20409400       4.09998359      -0.01344485      -0.00375978      -0.00080493
Li       3.67066898       1.63588622       5.62007996      -0.00088966      -0.00803783       0.00550824
Mn       0.23111901       4.14431802       5.60141659      -0.00733641      -0.00658831       0.00236805
Mn       3.70388710       1.71146173       2.55385841       0.00106965      -0.00425015       0.00168335
O       -0.52715378       2.91565571       4.14605579       0.00732923      -0.01542976      -0.01454473
O       -0.78247454       3.00980920       1.04371722       0.00276607       0.02303452      -0.02062204
O        2.69990821       0.58594817       4.08572869      -0.02521451      -0.00514141       0.01418707
O        1.80331301       2.92839669       5.50686502      -0.01497626      -0.00595649      -0.00874582
O        0.25279649       0.25090895       5.75806577      -0.00490443      -0.00305733       0.00364602
