3
Lattice="3.652183586917675 -0.0028038153394865433 0.0006533780838413578 -1.82351678762189 3.1652466664832204 -0.005368916726758859 0.00560812813061891 0.008159418019135396 6.902039826932833" Properties=species:S:1:pos:R:3:forces:R:3 structure_index=0 total_energy=-17.256643295288086 stress="0.0006868602358736098 -0.00026575816445983946 0.004355488810688257 -0.0002657726581674069 0.01662374660372734 -0.0002688904933165759 0.004355353768914938 -0.0002690663968678564 0.09107165038585663" pbc="T T T"
Ti       1.67174999       1.48820002       6.22129923       0.00040592      -0.00012547      -0.02133358
Te      -0.15318681       2.54139510       4.38680899       0.00025771       0.00009356       0.02293393
Se      -0.16078921       0.42889668       0.76324766      -0.00066363       0.00003191      -0.00160031
