7
Lattice="3.2404000759124756 0.0 -0.6381486654281616 -1.969268439922871 5.577195632756168 -1.097210168838501 0.0 0.0 8.845043182373047" Properties=species:S:1:pos:R:3 pbc="T T T"
Se       0.97493234       3.95413326       3.68967164
V        1.18609776       0.12078263       4.52549170
V        0.57082978       4.28340529       1.42705655
Se       0.78965633       0.46887619       2.29168883
V       -0.74581462       2.24318140       3.26497813
Se      -0.31138798       1.62947555       5.69226292
Se       2.06536423       2.76385961       0.24715734
