12
Lattice="4.628818622332976 0.00198417902579446 -0.0014038199539579352 -0.0035226531993654262 8.27219567563847 -0.00937330814951653 0.0028657651286409375 0.01113823375490779 9.834834862486872" Properties=species:S:1:pos:R:3:forces:R:3 structure_index=0 total_energy=-102.35308837890625 stress="0.003167216433212161 1.7588088667253032e-05 1.6980140571831726e-05 1.7545244190841913e-05 0.008539123460650444 -3.9496611861977726e-05 1.702226472843904e-05 -3.9661445043748245e-05 0.005649444181472063" pbc="T T T"
Eu       1.82557670       4.27529356       6.46832745      -0.00010099      -0.00553701       0.00425933
Eu       4.13651617       7.99671190       1.54556492       0.00010494       0.00528575       0.00455167
Eu       1.82723686       0.14089959       8.09883130       0.00019268      -0.00540904      -0.00409706
Eu       4.13925151       3.86281471       3.17659403      -0.00017129       0.00468999      -0.00383155
Eu       1.82642181       1.13506342       4.16089025      -0.00021293       0.00895589       0.01972215
Au       4.13917556       6.10258592       8.49390330       0.00015745      -0.02044953      -0.04167803
Eu       1.82292036       5.26683616       0.56940513       0.00007325       0.00916782      -0.02048725
Eu       4.13850424       7.00249957       5.48386235      -0.00002633      -0.00840413      -0.01970837
Eu       4.14075013       2.87035570       9.07586170       0.00017823      -0.00828632       0.01936651
Au       1.82393014       6.17398369       3.57700688      -0.00008779       0.02031642      -0.04175520
Au       1.82430670       2.03517347       1.15095877       0.00021704       0.02002548       0.04201741
Au       4.14120452       1.96381301       6.06789760      -0.00032425      -0.02035528       0.04164038
