20
Lattice="5.389102458953857 0.0 -0.0007833590498194098 0.014924256146175988 5.680112782676475 -0.00454917224124074 0.0 0.0 7.765518665313721" Properties=species:S:1:pos:R:3 pbc="T T T"
Gd       1.66381626       1.46615173       7.21825304
Gd       1.46854147       0.73832119       3.33790317
Fe       4.26077689       1.10048618       1.39495186
Fe       4.26061906       1.10166463       5.27947829
Gd       4.36410188       3.57718077       3.33473761
O        0.51659663       2.22286288       4.83206098
Fe       1.57216248       3.94127107       1.39430802
O        2.62677404       5.66012041       5.72002072
O        3.66472203       1.32521890       3.33478014
Fe       1.57100826       3.94050288       5.27651687
O        4.85614272       0.87562389       7.21979981
Gd       4.16772744       4.30436059       7.21645945
O        5.32104097       5.06137645       4.82765918
O        2.62626901       5.65856235       0.94695973
O        0.97366517       3.71635139       7.21989482
O        2.16986276       4.16612135       3.33372003
O        0.51875255       2.22417548       1.83930362
O        3.21245192       2.81942989       5.72180922
O        3.21386064       2.81730119       0.94739263
O        5.32116593       5.06370237       1.83617381
