20
Lattice="6.115102767944336 0.0 -0.2063586562871933 1.7749855856369905 7.202384005225869 -1.7485071420669556 0.0 0.0 8.190776824951172" Properties=species:S:1:pos:R:3 pbc="T T T"
Na       1.18074546       2.11945677       7.64729607
I        2.09125011       4.17553406       5.01826888
O        2.42079454       2.48091910       5.53192615
O        2.89028780       3.38755179       0.61995928
I        4.20786532       0.56197410       5.44747549
I        4.30106090       2.89631856       1.45448426
Na       5.37593425       5.97263731      -1.09643292
O        3.50826308       4.96205414       5.75746061
O        7.42530257       5.92379163       0.63271448
O        3.11057108       0.12830874       6.77074568
O        0.35213686       1.26747040       3.55066643
O        5.29121698       1.69745367       6.31867340
O        4.38141813       1.16792288       1.34059861
O        6.96000212       4.43576829       6.09284098
O        5.60656002       3.56888193       0.68350721
O        7.07559200       6.33533451       3.67886996
O        1.38808884       0.22519650       1.18958805
O        4.20868335       3.38183508       3.11010962
O        3.92887869       6.31360958       1.87306798
I        2.58953860       7.03020687       1.00285596
