20
Lattice="6.125329390904595 0.5336830949315797 -0.28704466944391455 2.42230620672589 7.129948288831138 -1.9645903655310806 -0.09421645789319935 -0.12282888110426403 8.601410455435936" Properties=species:S:1:pos:R:3:forces:R:3 structure_index=0 total_energy=-85.09333038330078 stress="0.04399937018752098 0.0028140898793935776 -0.0016167243011295795 0.0028142279479652643 0.03547583147883415 0.0034307450987398624 -0.0016172437462955713 0.0034307714086025953 0.03219803050160408" pbc="T T T"
Na       1.17876693       1.89006969       8.08670545      -0.00112087      -0.04971609       0.00131774
I        2.41951582       4.31929263       5.39511528      -0.01828781      -0.00548786       0.01818043
O        2.89553982       2.51351985       5.12861608       0.03591989       0.00071120      -0.02799699
O        3.07228063       3.42256761       0.03772201       0.00193819      -0.04077689      -0.03416553
I        4.15782246       0.78720888       5.74016360      -0.02519124      -0.01293912       0.01777726
I        4.40300236       3.16616583       1.20748122      -0.01329861      -0.00566231      -0.03347756
Na       6.04234340       6.28319262      -0.77390971       0.04834969      -0.02937163       0.08754098
O        3.86574058       5.14617511       5.99849671      -0.05504721       0.02051699       0.01228958
O        8.07950011       6.40372007       0.68425097       0.06833580       0.02274406       0.01932501
O        2.99098568       0.32558007       7.01448332      -0.04238072       0.03138091      -0.02328184
O        0.18062688       1.41519570       3.94738166       0.01102413       0.04463251      -0.00656272
O        5.38482807       1.75111486       6.60576897      -0.01465443      -0.04866987      -0.00077930
O        4.66528692       1.38203065       1.28093332       0.01566288       0.00148621      -0.00871325
O        7.28661599       4.72893661       6.36786711      -0.00491470      -0.02620538      -0.00729769
O        5.88726301       3.93246533       0.53734439      -0.02593541      -0.01555248      -0.02112022
O        7.70987620       6.02028442       3.85410731      -0.03738698      -0.02945614       0.02286768
O        1.41224911       0.46923232       1.32579400       0.02330388       0.00761996       0.02842209
O        4.00393236       3.77302839       2.83571182      -0.03465161       0.04149623      -0.06332368
O        4.70168437       6.54314425       1.77242004       0.03695610       0.05748053       0.00377063
I        3.19345315       7.16690835       0.99755191       0.03137873       0.03576927       0.01522766
