11
Lattice="7.057018280029297 0.0 1.109588861465454 -3.3840532167120196 6.031606784975879 -2.2001328468322754 0.0 0.0 8.0743408203125" Properties=species:S:1:pos:R:3 pbc="T T T"
Se       0.12203086       1.61213099       7.57383584
Rb      -0.00319679       5.94603723      -0.75615397
Se       4.26883722       2.52661248       3.35851154
Se       2.85340443       5.56309103       5.43258108
Hg       5.17163552       0.87248638       5.37150290
Hg      -1.71834396       4.86390929       3.23630151
Hg       1.76444808       2.92944561       4.26460918
Se       0.79456116       4.56529485       2.24124980
Se      -0.71438155       3.08138050       5.52652928
Se       2.38465195       1.32821348       6.55114613
Rb       3.51692317       3.92410811       0.35169954
