8
Lattice="3.4447599149296746 0.000300389177758971 0.00037354793258877005 -1.722189940546551 2.9834958950180863 0.0033563962372492634 -0.00033409755168279195 0.0021843737196322673 12.033458745572831" Properties=species:S:1:pos:R:3:forces:R:3 structure_index=0 total_energy=-88.19612121582031 stress="0.009092560037970543 7.159190863603726e-05 -0.00022788028581999242 7.171575998654589e-05 0.009373577311635017 -0.0008891110774129629 -0.00022589806758332998 -0.0008885621791705489 0.04064993932843208" pbc="T T T"
C        0.43908919       0.24837737       4.67408866      -0.00002069       0.00277481       0.04806162
Gd       0.43928131       2.23696959       6.46790625       0.00050385       0.00252448      -0.00066535
Gd       0.43957158       2.23989793       3.32432841       0.00063006       0.00499288       0.04293832
Gd       0.43917989       0.24627050       9.36179769      -0.00039411      -0.00126759      -0.01390740
C        0.43937124       2.23406053      10.76643183      -0.00115660      -0.00225618      -0.00423696
N        2.15976707       1.24123967       1.10645597       0.00102959      -0.00407424      -0.04287630
Mn       0.43890490       2.23059951       0.43096139      -0.00074563      -0.00383484      -0.02455480
N        2.16160361       1.24124260       7.88105806       0.00015375       0.00114100      -0.00475888
