4
Lattice="3.71432936908907 -0.0005622766894373774 0.0010964027754252225 0.0009490967150472866 3.714344010836311 -0.0013253565113975501 -0.0033879819026846406 0.0038615353459102754 10.759490959165634" Properties=species:S:1:pos:R:3:forces:R:3 structure_index=0 total_energy=-29.528486251831055 stress="0.0045635998249053955 0.0004368216323200613 1.7060398022294976e-05 0.00043679639929905534 0.004632440395653248 -2.895502984756604e-05 1.7030242815962993e-05 -2.8904771170346066e-05 -0.049304015934467316" pbc="T T T"
Eu       3.24768193       2.16066721       8.96944150      -0.00090566      -0.00010338      -0.00387633
Eu       3.24691880       2.15912404       3.73465446       0.00042653      -0.00028765      -0.00328492
Pr       1.39117423       0.30059728       0.96539517       0.00009545       0.00024587       0.00734030
Dy       1.38901772       0.30276063       6.35279401       0.00038368       0.00014516      -0.00017905
