7
Lattice="4.612913458305488 0.008213524393065406 -1.3259316031162454 -0.38839421968518567 4.596134242708037 -1.3275394419251199 -0.01820294159685284 -0.018190740098703993 8.616303768365054" Properties=species:S:1:pos:R:3:forces:R:3 structure_index=0 total_energy=-63.73485565185547 stress="0.035375356674194336 0.010589826852083206 0.000290610158117488 0.010589691810309887 0.0380978137254715 0.0008448775624856353 0.00029088903102092445 0.0008450704626739025 0.005994897801429033" pbc="T T T"
O        2.67251388       2.32486945       4.70650771      -0.00473902      -0.00340640      -0.01281538
Ge       1.10885620       0.62166893       7.94307724      -0.00107955      -0.00179438       0.00173796
Eu       1.93315288       1.51839615       2.13460887       0.00426781       0.00507348       0.01093197
Eu       2.85999334       0.01973390       5.34722160       0.00045367      -0.00142636       0.00206909
Eu       0.35938498       2.31335737       5.34688566       0.00097743       0.00162383       0.00025751
Eu       3.41372069       3.13261545      -1.39259969      -0.00085680      -0.00187373      -0.00062087
Ge       4.22284885       4.01353976       1.42430824       0.00097648       0.00180359      -0.00156028
