5
Lattice="4.192613907453088 0.036392898834792284 -0.006092249174612641 -2.129025881732761 3.6143651616773833 0.0024231758598833144 0.012878485970225098 0.001388622973591968 8.258969584774436" Properties=species:S:1:pos:R:3:forces:R:3 structure_index=0 total_energy=-26.996410369873047 stress="0.029909024015069008 0.008179513737559319 0.002833801554515958 0.008179602213203907 0.04005442187190056 -0.0006253576721064746 0.00283437455072999 -0.0006262187962420285 -0.046511389315128326" pbc="T T T"
Cu       1.70926544       1.78104636       3.34297375      -0.00249302      -0.00241054      -0.01416696
Nd      -0.39682665       2.97243646       5.36537080       0.00029602       0.00162291       0.02493981
Te       1.71154677       1.77937057       7.46009117       0.00672147       0.00053379       0.00296502
As       3.81594649       0.58790322       3.31950108       0.00011855      -0.00095808       0.00653353
Nd      -0.40136497       2.97189294       1.29945259      -0.00464299       0.00121183      -0.02027151
