9
Lattice="3.798170566558838 0.0 0.0002733113942667842 -0.0007562452719501597 8.88529488206283 -5.146646022796631 0.0 0.0 10.280511856079102" Properties=species:S:1:pos:R:3 pbc="T T T"
Eu       1.86382588       0.54030199       6.42715321
Mg       1.86247135       3.86434279       7.90675519
Eu       3.76227290       1.25630910      -0.61362123
Eu       1.86360278       0.90609650       2.76829524
Eu       1.86312256       4.24835510       1.25547600
Eu       3.76261172       3.64968682       4.76311622
Eu       1.86374612       6.80086651       5.76865793
Eu       3.76357539       6.68393571      -0.98743635
Mg       3.76313005       6.82454612       2.77335886
