11
Lattice="4.073264122009277 0.0 -0.027879666537046432 -1.9234108363330336 6.532498075460405 0.5163154602050781 0.0 0.0 11.443388938903809" Properties=species:S:1:pos:R:3 pbc="T T T"
Ag       1.85649257       4.78868502       6.73643653
Ag      -0.21592868       2.56497043       0.40154001
Cl      -0.16591498       5.33331048       8.14772338
Cl       1.82870295       2.44086216       6.17951260
Ag      -0.14900527       6.22729413      10.55174265
Cl       1.89273411       6.31620692       4.72395712
Cl       1.78456301       0.73119914       1.02652258
Ca       1.81447649       1.52231323       3.74352673
Cl       1.86335672       4.39833269      11.22548865
Cl      -0.19952651       3.17422190       2.84141062
Cl      -0.22049334       1.47285046       9.59769773
