11
Lattice="3.988734193310527 0.4379491432153925 0.05527302388617027 -1.1706854182389115 6.491043572433698 0.5029976383134626 0.23396107620727608 0.041484247305183526 11.494920395736195" Properties=species:S:1:pos:R:3:forces:R:3 structure_index=0 total_energy=-33.42934036254883 stress="0.024761663749814034 -0.007524135056883097 0.002470317529514432 -0.007524626795202494 0.02232280932366848 0.0031787543557584286 0.0024702881928533316 0.0031788761261850595 0.023388942703604698" pbc="T T T"
Ag       3.17741734       4.76991079       6.98331264       0.00217948      -0.00589386       0.01068650
Ag      -0.02129122       2.52848080       0.41347826       0.00148977      -0.00052611      -0.00461333
Cl       0.90621529       5.68151456       8.19696464       0.04446104      -0.02771416       0.00610702
Cl       1.46884367       3.15585018       6.08828170      -0.01369011       0.00956426      -0.01217590
Ag       0.78048919       6.38407726      10.61137410       0.01694283      -0.00170244      -0.00232098
Cl       2.93328005       6.76235989       4.96128933      -0.03571744       0.01827821       0.01599561
Cl       1.71481129       0.79149586       1.09284221      -0.01028190       0.00660262      -0.00259611
Ca       1.93936876       1.69575218       3.78808905      -0.02435800       0.00512167      -0.00501594
Cl       2.48133952       4.69943979      11.24737494       0.01141235       0.00225031       0.00228044
Cl      -0.22482907       3.17277651       2.79559868      -0.01620854       0.00029522      -0.00866991
Cl       0.24933303       1.62542019       9.63800287       0.02377045      -0.00627574       0.00032268
