14
Lattice="4.948081016540527 0.0 -1.971325159072876 -1.2696986524737779 6.24691369433568 -2.1337897777557373 0.0 0.0 6.027153968811035" Properties=species:S:1:pos:R:3 pbc="T T T"
Na       4.48200911       0.89672320       3.45705464
Ca       1.90571351       6.18785530      -1.34165391
Na       1.24582347       2.23632945       2.91615104
O        3.03743752       2.18508564       1.58162408
Ti       0.51202006       5.46600704       1.97610783
O        0.48987191       0.11679709       3.24063708
O       -0.35517869       3.79154667       2.20625360
O        0.33240203       2.97179288      -0.99027151
O       -0.18630453       5.52686833      -2.07639945
O        2.67137466       0.90148056      -1.27755403
Cd       2.53795700       3.07829437      -0.46674432
O        1.84106395       5.06077570       0.76690252
O        2.63963707       4.22003021      -2.51734731
Ti       3.89662550       3.84223810       2.21522972
