14
Lattice="5.235680103843399 0.05214582679345722 -2.0276776265242122 -1.374405540266833 6.342242871985091 -2.4376101728487867 0.015507335504361326 -0.21783411023820398 6.238370544808922" Properties=species:S:1:pos:R:3:forces:R:3 structure_index=0 total_energy=-91.8271255493164 stress="-0.006591625977307558 0.002163014141842723 0.0007664698641747236 0.0021622164640575647 -0.006069222930818796 0.000532279082108289 0.0007658263784833252 0.0005320513155311346 -0.008912920020520687" pbc="T T T"
Na       4.80068058       0.53843429       3.63684159      -0.00024767      -0.01824952      -0.01681571
Ca       2.20475013       6.25786221      -1.72455543      -0.01209594      -0.00454793      -0.01400565
Na       1.28334502       2.28705804       2.89547875      -0.00354666       0.00200033      -0.00413907
O        3.15787473       2.20845908       1.44332352      -0.00354198       0.00838484      -0.00949630
Ti       0.58006796       5.70706067       1.52795455      -0.00300209       0.00190172      -0.01510799
O        0.56708978       0.16346912       3.20250914      -0.01226914       0.00198758       0.00307807
O       -0.13093117       4.13775673       2.55501517       0.01532550       0.03305463       0.03426914
O        0.21883387       2.79042057      -1.03800640       0.00367706      -0.01817477      -0.00500894
O       -0.34534258       5.30551932      -2.53463241       0.00613016       0.01313165       0.04674193
O        2.85721650       0.85292722      -1.31065221       0.00494385      -0.00570670      -0.01320672
Cd       2.39301297       3.08207528      -0.49525159       0.00127283      -0.00132130      -0.00288334
O        1.82445177       5.20469483       0.30722442      -0.01359065       0.00189376      -0.01985793
O        2.87210179       4.12991809      -2.50102690       0.01047252      -0.01074780       0.00922027
Ti       4.09448409       3.46826565       2.44984625       0.00647187      -0.00360671       0.00721252
