15
Lattice="2.9724907875061035 0.0 -0.3950347602367401 -0.1423089989624526 5.799734626865269 -0.5363062024116516 0.0 0.0 10.265924453735352" Properties=species:S:1:pos:R:3 pbc="T T T"
O        1.41448236       0.29483334       7.95073545
Cr       0.29769366       4.66226139       1.29276923
Li       0.80548847       0.52640253       4.28011266
Cr       0.10208811       0.10929661       9.53758439
Fe      -0.05459581       3.24695367       8.77834110
Fe       1.12683228       4.20485538       6.65015526
O        1.89955138       3.61975975       1.89420375
O        1.63463873       5.73075545       0.07409920
O        0.22803232       2.06682242       0.43443677
Li       2.82428204       1.17959936       6.59623832
Al       1.86242644       1.79136828       1.28048123
Cr       1.87279011       3.14890481       3.88752292
O        2.14597204       1.26327291       2.98747539
O        0.70062816       4.57009812       4.72905010
F        1.28560348       1.97504238       5.60429332
