9
Lattice="4.286113739013672 0.0 -3.7486304790945724e-05 2.1475883200228054 7.099533247549561 -0.3609580397605896 0.0 0.0 9.146836280822754" Properties=species:S:1:pos:R:3 pbc="T T T"
Eu       2.67914254       6.20726201       4.65170302
Eu       0.53327017       0.10111067       1.57819646
Au       4.82418919       2.60642570       8.59443484
Eu       4.82162756       3.08740981       5.24037934
Au       4.82602167       5.29548836       2.66689526
Eu       2.68028676       3.32375750       1.63213475
Eu       2.67906710       0.69138300       7.62365271
Au       2.67671093       1.13629853       3.95824210
Pb       2.68035126       4.81430175       7.66171207
