11
Lattice="3.140192747116089 0.0 0.003939794842153788 -1.5789932724788684 2.717529441877815 -0.005745330359786749 0.0 0.0 13.069356918334961" Properties=species:S:1:pos:R:3 pbc="T T T"
Li       0.06881593       1.61162355       4.81484358
Fe       0.08077731       1.60061978      11.19612545
O        1.64329584       0.70330699       3.73889028
Li       1.63926564       0.70611187       6.35660275
Li       1.64903856       0.69814331       0.31832583
O        1.63795208       2.51332780       6.37246102
Fe       1.63953944       2.51576734       2.61903122
O        0.07368062       1.60646263       1.60324267
O        0.05168626       1.61686871       9.22862344
Fe       1.63803728       2.51386022       8.35206621
O        1.64147491       2.51138294      12.07947636
