10
Lattice="3.7040655612945557 0.0 0.003291661385446787 -1.8534730180775236 5.587250271383984 0.004464240279048681 0.0 0.0 7.354689121246338" Properties=species:S:1:pos:R:3 pbc="T T T"
Ge       1.40036794       3.15217699       5.00727324
Sm       1.40192188       0.06321274       4.98825210
Mn       1.40448925       4.18804425       2.76024189
O        3.25287152       0.50537097       3.16233626
Mn      -0.44978047       2.38106029       6.43584759
Mn       1.40141319       4.20876812       7.24476271
Sm       1.40506855       0.94321849       1.32713652
O        3.25788648       0.50622497       6.83346876
Mn      -0.45053002       2.40068002       3.56174334
Ge      -0.45165972       3.44580274       1.31708905
