12
Lattice="6.17855167388916 0.0 -0.03931587561964989 -0.02345195791613234 7.510024646782142 -0.01653328910470009 0.0 0.0 10.745824813842773" Properties=species:S:1:pos:R:3 pbc="T T T"
Eu       3.95551619       3.43135377       2.32951553
Eu       0.84469931       7.17929372       7.53883404
Nd       0.79152482       5.29838376       4.01433509
Nd       4.01940952       1.52762161       5.84944566
Eu       0.85698781       3.39710116       7.54465889
Eu       0.84256349       1.53325741       0.49750158
Eu       3.92507060       1.53181480       9.34228227
Eu       3.88415458       5.29030803       5.79293431
Eu       3.96873990       5.28480618       9.36994880
Eu       0.93378523       1.54069527       4.07818310
Eu       3.94214077       7.15285969       2.32154662
Eu       0.89057609       5.29824410       0.52701768
