11
Lattice="5.298422255984883 -0.044760575279633556 -2.5810459689516327 -1.4058267792834165 5.188925801390553 -2.432801887359644 0.01570942837251276 0.053894938976594725 6.4796052377198645" Properties=species:S:1:pos:R:3:forces:R:3 structure_index=0 total_energy=-93.41656494140625 stress="-0.03283170238137245 0.006891199387609959 0.02843320555984974 0.006890895310789347 -0.01414405182003975 0.0077625964768230915 0.028434038162231445 0.007767492439597845 0.009302053600549698" pbc="T T T"
O        1.81171968       0.52665995       4.39199524      -0.00560517      -0.02469131      -0.02632847
O        3.31415904       2.87843523       1.34319728       0.00060464      -0.00748129       0.00739390
O        0.67297092       2.74184409       2.50090847       0.01090849       0.01502725       0.01491763
Sr       0.27275794       2.48791145      -1.37976382      -0.00053740      -0.00913339       0.00646354
Eu       2.24808498       0.87443967       2.07338814      -0.02022138       0.02943346      -0.01597346
Eu       3.97810050       4.04830016      -0.64661107       0.01485097      -0.02793011       0.00103412
O       -0.81356871       4.44723295      -0.30395245      -0.00843467       0.02787809      -0.00675957
O        4.32631541       0.47902328       3.01976827       0.00270872       0.00305811       0.01753867
Eu       2.43706577       4.67442533      -3.90117234      -0.01930418      -0.02454311      -0.00806575
O        1.87172634       4.37847416      -1.70027614       0.00886516      -0.01046760       0.01651630
O        0.10207215       2.07375039       1.36296286       0.01616482       0.02884988      -0.00673776
