11
Lattice="4.546374797821045 0.0 0.22020673751831055 0.07530555759301935 5.112615575669258 0.0448647066950798 0.0 0.0 5.517274379730225" Properties=species:S:1:pos:R:3 pbc="T T T"
Mn       2.69389195       1.45673979       4.39940741
F        1.49305186       4.95813472       1.46925848
O        1.51559868       2.16664995       5.58421462
F        3.85647779       3.10390127       1.54534249
Mn       0.33849975       1.42998583       1.27470326
Mn       2.75072093       4.09805923       2.70688086
O        3.79606921       0.70709356       5.67771006
F        3.65656347       3.05415561       4.20762313
O        3.72228475       0.66280374       2.89049251
F        1.56771105       2.32079742       2.81631648
F        1.78431942       4.96470817       4.12461721
