11
Lattice="4.564375104936455 -0.09236690976875532 0.2185571070377636 -0.0255581353310267 5.084289052002698 -0.011404402952824823 0.00039814155388606323 -0.06029379348978864 5.467722922604686" Properties=species:S:1:pos:R:3:forces:R:3 structure_index=0 total_energy=-66.3457260131836 stress="0.009412244893610477 0.0030796616338193417 1.0102780834131408e-06 0.003077859990298748 0.0024266575928777456 -0.001906189019791782 -1.0608507636789e-06 -0.0019071886781603098 0.0088852783665061" pbc="T T T"
Mn       2.71316827       1.33027195       4.37517429      -0.00724383      -0.00631650      -0.00513604
F        1.31672220       4.93422517       1.35972947      -0.02703267       0.01361163       0.00646296
O        1.49768508       2.09590139       5.50765191       0.00221629      -0.00993965      -0.00947801
F        3.90508804       2.98020509       1.50677538       0.03170114      -0.00399954      -0.00810195
Mn       0.29596605       1.40118867       1.20716106      -0.00071144       0.00085436       0.00142363
Mn       2.67229595       4.00231126       2.61973052      -0.00109634      -0.00494818       0.00428048
O        3.76453546       0.52721489       5.61654852      -0.00356853       0.00815690       0.00113639
F        3.64201060       2.91303879       4.19032211       0.00742391      -0.00165311       0.00337657
O        3.69766441       0.49947281       2.85617594      -0.00219985      -0.00678797      -0.00086774
F        1.57042393       2.30996351       2.74565567       0.00595446       0.00418596      -0.01033190
F        1.63746732       4.84144039       4.06794919      -0.00544326       0.00683621       0.01723601
