20
Lattice="4.2806759086430235 -0.0748857263532981 -1.5483876468145403 -0.5002107002244892 5.888462811561429 -3.5370637284913276 -0.05675239911185778 -0.06636444772033434 6.994548314415684" Properties=species:S:1:pos:R:3:forces:R:3 structure_index=0 total_energy=-132.52642822265625 stress="-0.021420974284410477 0.0024076541885733604 -0.006897811312228441 0.002407695399597287 -0.021424120292067528 0.007164877373725176 -0.006896565668284893 0.007165568880736828 -0.015361208468675613" pbc="T T T"
Fe       1.69763722       1.21271688       2.22471150      -0.00333250      -0.01816533       0.00819884
Fe       1.44064188       4.56875862      -0.77990596      -0.04871102      -0.00816555      -0.00125685
Fe       3.49577015       5.74301135      -1.80234355      -0.03693939      -0.00623055       0.00361656
Be       3.74021338       3.37063311      -1.29357976       0.00436741       0.00267080       0.00982619
Fe       3.89592160       1.76066310       3.76322591       0.01171847       0.02271388       0.01973341
Fe       1.82233320       0.40544449       4.75599273      -0.00491488      -0.00112111      -0.00831618
Fe       1.43149415       5.52250235      -3.30647264       0.00351671       0.00148290      -0.02958055
Fe       3.94755881       0.96016945      -0.82147024       0.02373681       0.01165051       0.00537722
Fe       3.49645734       4.93097971       0.63852902      -0.01222978      -0.00577852      -0.01421962
Fe       1.74570248       2.24565665      -0.26459553       0.03913572      -0.00006066      -0.00387064
H        0.67706068       1.50199370       3.74888054      -0.00734595       0.00156976       0.00697315
Fe       3.77353874       2.51073766       1.17842908       0.01407780      -0.00799671       0.02670017
H        0.43138825       4.01940557       3.24031479       0.00046407      -0.00287130      -0.00336141
Fe       1.44036242       3.77869438       1.66976347       0.00310356      -0.02217603      -0.00158237
Fe       3.70266584       4.30842436      -3.76491665      -0.00494229       0.02105194      -0.02082966
H        2.68633207       2.74896975       2.71302425       0.00921381      -0.00754534       0.00343783
H        0.76245382       0.73094627      -0.75597545       0.00180392       0.00193227      -0.00293824
Fe       1.72207306       2.99608311       4.29117009       0.00524336       0.01478944      -0.00208528
H        2.89864567       0.18666605       3.25157531      -0.00194305      -0.00146681      -0.00530372
H        2.85953930       1.04948282       0.71862386       0.00397738       0.00371640       0.00948116
