8
Lattice="3.717534065246582 0.0 -1.6127228736877441 -0.6605303790013222 3.6411303881157857 -1.6250897645950317 0.0 0.0 4.961639404296875" Properties=species:S:1:pos:R:3 pbc="T T T"
Mn       1.66766773       0.73501273       1.80703345
Mn       2.10325633       3.46509376      -2.29489754
C        0.24149984       3.46878215      -1.49340952
C        2.43403787       1.64042412      -1.47779142
Mn       0.57199562       1.64839666      -0.67687630
C        1.33874361       2.55622683       0.99738318
Mn       3.19460622       2.55517533       0.19061220
C        3.52496031       0.73498733       1.00019468
