4
Lattice="2.5964295356727094 -0.006646596052412951 0.004724069439959746 0.010604573514184 4.097715042466058 -1.187945820929504 -0.00964821121789492 0.08075609131172834 4.265628885712842" Properties=species:S:1:pos:R:3:forces:R:3 structure_index=0 total_energy=-29.747947692871094 stress="-0.11494266986846924 -0.018711792305111885 -0.014723611064255238 -0.01871190406382084 -0.07039908319711685 -0.032822418957948685 -0.014723547734320164 -0.03282271698117256 -0.051898058503866196" pbc="T T T"
Ni       0.29353458       1.92753306       1.25284653       0.00045317      -0.00104185       0.00043816
Co       0.29458119       4.01649835       2.79300709      -0.00115525       0.00068020      -0.00076436
Fe       1.58791279       1.96457170       3.38808818      -0.00137680       0.00017178       0.00048734
Fe       1.59627175       3.97300120       0.66242485       0.00207889       0.00018986      -0.00016115
