14
Lattice="4.122189521789551 0.0 2.2822377681732178 1.2665595965043792 4.240981030456646 2.349301338195801 0.0 0.0 5.148281574249268" Properties=species:S:1:pos:R:3 pbc="T T T"
Ni       3.55729782       1.80698615       2.78413290
Ni       1.71385863       0.22419359       1.35692537
H        4.52351615       2.71653014       5.59627757
Ni       2.94981651       2.32821325       5.27911197
Ni       1.07468358       1.19813414       3.73201039
H        0.53023377       0.58393079       5.32673530
Mn       1.29855635       3.24983959       7.06523866
H        2.52444611       3.97785249       5.25451211
H        1.05893169       2.48791723       5.31697205
H        3.15293700       3.38297566       7.59680260
Ni       4.69084605       3.90071045       6.83600950
H        2.73072846       1.19727367       4.04106312
H        2.27131643       1.77583037       6.80059830
H        3.47914691       0.48517606       5.97548704
