4
Lattice="3.714376714211836 -0.0005622294092310782 0.0010934781031957561 0.0009491647657092039 3.714391282868348 -0.0013244557266155782 -0.0033964315936345904 0.003864247211759005 10.759691288417093" Properties=species:S:1:pos:R:3:forces:R:3 structure_index=0 total_energy=-29.528480529785156 stress="0.0046249195002019405 0.0004371937830001116 1.798841913114302e-05 0.00043719171662814915 0.004695653449743986 -2.986996332765557e-05 1.8010532585321926e-05 -2.9818196708220057e-05 -0.049408458173274994" pbc="T T T"
Eu       3.24779513       2.16068947       8.96859149      -0.00096050      -0.00010626      -0.00288053
Eu       3.24691544       2.15918603       3.73628136       0.00043889      -0.00031367      -0.00552242
Pr       1.39118627       0.30058699       0.96494114       0.00010770       0.00025945       0.00813582
Dy       1.38899850       0.30275442       6.35283782       0.00041393       0.00016048       0.00026713
