8
Lattice="2.9121683102605465 -0.0007909508710837484 -0.4960454285581695 -0.17031492515192315 4.065555457614811 -1.006518511569062 -0.0069078992648115255 0.006103337940149001 8.755955375401573" Properties=species:S:1:pos:R:3:forces:R:3 structure_index=0 total_energy=-65.67533874511719 stress="-0.018748274073004723 1.3299301144797937e-06 0.013192872516810894 1.473861971135193e-06 0.0610174685716629 -0.002385520376265049 0.013193005695939064 -0.002384593477472663 0.05686962977051735" pbc="T T T"
Fe       1.75093881       2.89121298       0.93434947      -0.00470619      -0.00694911       0.00047854
Fe       1.49187305       0.36272976       8.22247754       0.00028953       0.00256254      -0.00120457
Fe       0.62695588       3.39055685       3.14028353       0.00865976       0.01403183       0.03022354
Fe       1.06969114       1.89436417       5.74283285       0.00502722       0.01087873       0.02000416
Fe       2.19445215       1.39789462       3.54225921      -0.01148725      -0.01936070      -0.04400427
Fe      -0.04975395       2.39618993       7.96574572       0.00192456      -0.00128048       0.00073650
Rh       2.43230257       3.91607236       4.94314157       0.00434064      -0.00358937       0.01996623
Rh       0.38871574       0.87079470       1.73974315      -0.00404825       0.00370663      -0.02620021
