12
Lattice="3.543135722469783 0.00019775603346764656 0.0003306814211516089 -0.00028115336864005676 4.762979795010558 -1.5974941801027593 -0.00048756802781440607 -0.010571287794017266 7.954494723119375" Properties=species:S:1:pos:R:3:forces:R:3 structure_index=0 total_energy=-83.21551513671875 stress="0.018171919509768486 -0.001972090220078826 0.0023624273017048836 -0.0019719682168215513 0.012534314766526222 0.0018085031770169735 0.002362322760745883 0.0018088590586557984 0.0301386509090662" pbc="T T T"
Fe       0.41918204       0.43338204       6.68830569       0.00040627       0.00310205      -0.01586255
Fe       2.19113190       2.84064428       1.85717334      -0.00048739      -0.00855517       0.01642315
Ni       0.41990731       3.61251851       0.31612318      -0.00162304      -0.00285647       0.02051424
Fe       0.41896796       4.41784557       2.69650898       0.00070466       0.00036259      -0.00586120
Fe       0.42003674       1.20744915       1.08752288      -0.00137748      -0.01023676      -0.00864446
Ni       2.19135073       4.40817051      -1.28130566      -0.00096249       0.00083800       0.00271878
Ni       2.19152461       2.03478597      -0.50165424      -0.00120776       0.00225064       0.00403239
Fe       0.41892972       2.02165112       3.52574643       0.00164612      -0.00302118       0.00225304
Ni       2.19037625       3.60652821       4.30768942       0.00122304       0.00939187      -0.01351425
Ni       0.41905418       2.80979249       5.87412469       0.00024239       0.00266595      -0.00309398
Ni       2.19117827       0.44017717       2.68825988      -0.00016067       0.00494713       0.00505836
Ni       2.19044171       1.22766184       5.08438010       0.00159636       0.00111134      -0.00402351
