10
Lattice="4.833363056182861 0.0 -0.012125982902944088 -0.007799997427882435 5.550651791907728 -1.6726802587509155 0.0 0.0 9.605518341064453" Properties=species:S:1:pos:R:3 pbc="T T T"
Eu       1.04841731       4.16032654       3.06227055
Eu       3.46619760       1.06906238       3.21730813
Au       1.05006820       1.76143979       5.16565498
Au       3.46731010       0.07462655       6.23397895
Eu       3.46075828       3.22795873       6.66019470
Eu       1.05083370       0.76607669       8.18039097
Au       1.04677659       4.04575537      -0.68908175
Au       3.46488558       3.32874492       0.80829752
Au       1.05005959       1.68182253       1.41037861
Au       3.46927238       0.15389807       0.38085506
