6
Lattice="3.405928134918213 0.0 -1.105015516281128 -0.3048382135872821 4.703530925699704 -0.3355864882469177 0.0 0.0 6.562349796295166" Properties=species:S:1:pos:R:3 pbc="T T T"
Se       2.52076997       4.65111206       1.47224190
Se       1.29829871       2.31533915       3.41226877
Ni       1.24456364       4.68183334       3.61937873
Se       0.25891951       0.00234487       5.93160328
Se       0.47353507       2.27254884       0.44991840
Co       2.58194903       2.28133284       1.31387050
