6
Lattice="3.3674365326518596 0.07295584492697778 -1.0236872750696049 -0.25973930757554187 4.945215848154924 -0.493039021565395 0.26561689878563993 -0.17851010202313813 6.898062459212978" Properties=species:S:1:pos:R:3:forces:R:3 structure_index=0 total_energy=-28.165103912353516 stress="-0.046650517731904984 -0.0069873277097940445 0.0052315182983875275 -0.0069871991872787476 -0.053869910538196564 -0.0015872583026066422 0.005231495015323162 -0.0015869083581492305 -0.040005236864089966" pbc="T T T"
Se       2.67456500       4.83048031       1.64945927      -0.00170270      -0.00925919       0.00992662
Se       1.43726672       2.40556772       3.45836317       0.00316982       0.00249792       0.00762495
Ni       1.45546077       4.94574907       3.70305692      -0.00447686       0.00920694      -0.03538792
Se       0.49539811      -0.05507622       6.23019700      -0.00491291       0.01161405      -0.00617737
Se       0.52632080       2.26694343       0.45222040       0.00439814      -0.01407912       0.01486254
Co       2.66413439       2.29013661       1.43300838       0.00352453       0.00001940       0.00915106
