12
Lattice="4.681460380554199 0.0 0.5387275218963623 2.2256546835067477 3.99736757786404 1.0974040031433105 0.0 0.0 6.841962814331055" Properties=species:S:1:pos:R:3 pbc="T T T"
Zn       5.34123458       1.42029357       3.06204401
Zn       3.04222516       0.08755715       2.51732993
Fe       3.54816763       1.00770273       4.92654907
Fe       5.86179602       2.32804934       5.47016540
Fe       4.83725324       0.49981932       7.49638134
B        6.44941715       3.42043385       7.03465551
Fe       2.96314498       2.75200788       3.07161758
Fe       2.45530421       1.84840536       7.51173540
Fe       3.47039240       3.65471560       5.47033578
B        1.85423394       0.75172541       5.94569486
B        4.15707956       2.08302223       6.49040509
Fe       4.74360582       3.17275321       8.05373157
