17
Lattice="2.580524444580078 0.0 0.0006803481956012547 0.004069850165299709 6.790543290274023 -0.012261745519936085 0.0 0.0 9.423677444458008" Properties=species:S:1:pos:R:3:forces:R:3 sample_seed=85000 sample_index_within_seed=0 benchmark_method=TCL dft_verified=F structure_index=0 total_energy=-146.52642822265625 stress="-9.183931350708008 0.02356468327343464 0.005552459508180618 0.023564230650663376 -1.203072428703308 0.32317978143692017 0.0055511584505438805 0.3231855630874634 -2.385958671569824" pbc="T T T"
Mn       1.93499717       3.75464287       0.76997379       0.00485554      -0.57363170       0.62632334
Mn       1.93196087       0.48655228       2.52326937       0.00610011       0.21837294       0.32311404
Mn       0.64552599       4.96318981       2.86235542      -0.00904407      -0.01521945      -0.11348215
Co       1.93168871       0.23238415       8.52424351       0.01373885       0.73814672      -1.02082348
Mn       0.64736548       3.91924373       5.45173497      -0.02826820       0.33504492      -0.05239484
Mn       0.64639886       4.83664335       7.88592769       0.02059781      -0.85470414      -0.60308957
Mn       0.64489231       1.68984706       0.48665979      -0.01212256       0.38896883       0.21969993
Co       0.64675147       6.01959645       0.80517307       0.03525514       0.28661430       1.86670280
Mn       1.93309221       2.44681937       7.55391222      -0.01705505       0.49300641       0.13227862
Mn       0.64301158       0.19355170       6.46077061      -0.00692740      -0.45385134      -0.14118274
Mn       0.64449306       2.64275338       2.74714999      -0.01028441      -0.02918333       0.10846376
C        1.94046674       5.33507179       9.20613433      -0.07590884      -0.98849660      -0.85012329
Mn       1.93456590       1.72007950       4.75601768      -0.03534457       0.07061699      -0.39132348
Co       1.93630866       5.94081308       4.62190628       0.00380497       0.39576098      -0.21127856
C        1.93301001       3.78507263       3.83070122       0.03009526      -0.28386801       0.17578410
C        0.63883398       2.07689596       6.12198432       0.06906972       0.23194832       0.23574293
C        1.93585620       5.28930937       6.40896538       0.01143773       0.04047422      -0.30441162
7
Lattice="6.152639865875244 0.0 -1.9902540445327759 -2.8661434206808 5.3644402565518705 -2.2144436836242676 0.0 0.0 6.45351505279541" Properties=species:S:1:pos:R:3:forces:R:3 sample_seed=85001 sample_index_within_seed=0 benchmark_method=TCL dft_verified=F structure_index=0 total_energy=-57.89517593383789 stress="0.7940624356269836 -0.17585596442222595 -0.15159757435321808 -0.1758558601140976 1.2351168394088745 0.6540290117263794 -0.15159755945205688 0.6540291905403137 0.7554839253425598" pbc="T T T"
Eu       0.88155103       1.96221677       5.01196411      -0.00125154      -0.00563019      -0.00475573
Eu       3.95818388       1.95656111       0.78793909      -0.00080820      -0.00408636       0.01288842
Ge       3.95910856       1.96360174       4.02078088      -0.00844594      -0.00580024      -0.01271408
Ge       2.52292135       4.63865494      -0.31919691       0.00500156       0.00030692      -0.00282846
Eu      -0.55261229       4.63689154       0.67912624       0.00408111       0.01276351       0.00406420
Eu       2.52872748       4.64165351       2.90520288      -0.00283083       0.00444363       0.00289258
Cl       0.88214326       1.95350418       1.78205029       0.00425387      -0.00199725       0.00045308
19
Lattice="5.617256164550781 0.0 -3.6258373260498047 -2.598025119892967 5.376402653133444 -2.1943202018737793 0.0 0.0 6.238780975341797" Properties=species:S:1:pos:R:3:forces:R:3 sample_seed=85002 sample_index_within_seed=0 benchmark_method=TCL dft_verified=F structure_index=0 total_energy=-169.26455688476562 stress="-2.1887001991271973 -2.9644572734832764 -1.5858827829360962 -2.9644553661346436 -7.890563011169434 -1.8462388515472412 -1.5858806371688843 -1.846239447593689 -0.5122190117835999" pbc="T T T"
Fe       1.90894982       1.05285566       1.42759618       0.18173093       0.39906573      -0.04216856
Mn      -1.80245301       4.67733350       3.60962465      -0.00954401       0.27077943       0.29356772
Mn       0.60662354       2.97599588       2.90371140       0.14658368       0.02937915       0.12650625
Fe       2.00466858       4.96297937      -4.37141431      -0.21165699       0.81889200       0.50098002
Mn      -0.54582557       4.53322552       1.21683600       0.40931213       0.61695910      -0.25469327
Mn       1.16821271       1.65391328      -0.95605047       0.20600320      -0.32873335      -0.25015861
Fe       2.88287461       1.44941248      -2.54773434      -0.27206147      -0.32157061       0.36573681
Mn       1.63942787       3.36941389       0.51483473      -0.10015163      -0.62443691      -0.35502005
Mn       0.09657581       0.67455119       3.33050089       0.24222925      -0.04935730      -0.29353756
C        4.10968828       3.06917818      -1.79219697      -0.04951811      -0.10487583       0.18165034
Mn      -0.31225959       1.86692610       0.98584442      -0.05746007      -0.27103025      -0.38601494
Mn       3.46628065       3.01878254      -4.04314415       0.09399652      -0.27924064      -0.88562506
Mn       4.24204039       0.45914967       1.76040319       0.09658853       0.12899140      -0.14886348
C       -1.72561628       4.91130799      -0.44335365       0.03051194       0.05986859       0.23468648
Mn       3.62318368       2.17791864      -0.20738736      -0.60498464      -0.08508118      -0.11264735
Mn      -0.01470334       3.91478695      -1.05947774       0.42638576       0.37631124       0.25958535
Mn       3.11340633       0.02669169      -0.55880382      -0.02168130      -0.15760505       0.22329043
Fe       2.38269091       3.83194552      -1.87547565      -0.66142601       0.07099868       0.27751857
C       -0.55911569       2.18496440       4.61797236       0.15514240      -0.54931390       0.26520672
11
Lattice="6.565502643585205 0.0 -0.8350770473480225 0.3573532345835699 6.2258977963308295 -3.4503862857818604 0.0 0.0 9.209925651550293" Properties=species:S:1:pos:R:3:forces:R:3 sample_seed=85003 sample_index_within_seed=0 benchmark_method=TCL dft_verified=F structure_index=0 total_energy=-93.1484375 stress="0.33359262347221375 -0.13377954065799713 0.0008452319889329374 -0.13377951085567474 -0.03626643866300583 -0.18427778780460358 0.0008451305329799652 -0.18427784740924835 -0.09706906974315643" pbc="T T T"
Lu       2.90459863       5.30382329      -2.95777163      -0.01201892      -0.05874285      -0.08997521
Eu       4.16555348       2.01287305       2.69885599       0.11826433      -0.02847786      -0.02680565
Eu       5.33055382       4.46946799      -0.25189579      -0.00751028      -0.00541667      -0.00686550
Eu       6.17575593       2.92808995       5.56782740       0.04250062       0.05826483      -0.01731056
Lu       1.20490391       3.63702826       3.25255005       0.00314385       0.04120318       0.08518058
Eu       2.30124322       2.52282047      -0.61289623       0.09619738       0.04234132      -0.01848061
Si       0.77886321       0.04806523       7.54027535      -0.01156482       0.02338921       0.01049431
Eu       6.15149705       0.68576823       0.22371800      -0.12606481       0.03890123       0.01661038
Eu       4.48385815       6.03783409       3.11876996      -0.04934376      -0.07701229      -0.01067254
Eu       1.42111664       0.19677825       4.35495846      -0.07515588      -0.04775569       0.03702935
Si       2.95219605       2.65840613       5.40776565       0.02155225       0.01330552       0.02079550
8
Lattice="4.212352752685547 0.0 -1.375302791595459 -2.282714569834483 5.170054802977481 0.20255468785762787 0.0 0.0 7.151084899902344" Properties=species:S:1:pos:R:3:forces:R:3 sample_seed=85004 sample_index_within_seed=0 benchmark_method=TCL dft_verified=F structure_index=0 total_energy=-39.66420364379883 stress="-1.324283480644226 -0.13622614741325378 -0.16516166925430298 -0.13622650504112244 -1.9974907636642456 -0.2849321961402893 -0.16516168415546417 -0.2849319875240326 -1.7284140586853027" pbc="T T T"
Eu      -0.95359836       4.98991290       0.60925230       0.03060295       0.10433868       0.10826659
Zn       1.78133255       4.42914067       1.84218346       0.01612098      -0.11750928       0.06968743
Eu       0.31027356       4.00895778       4.49165588      -0.00173609       0.10069188      -0.02394316
Pd       2.08660071       1.85125039       2.76348013       0.00460202      -0.07673388       0.02904504
Zn       2.91043711       1.97422474       5.28310727      -0.03877325      -0.06226114      -0.05187573
Zn       0.40194761       1.06252441       4.73833929      -0.00804681       0.04861282      -0.04191242
Zn      -0.46290576       2.02511016       2.09668731       0.00097921       0.07966745      -0.00502770
Pd       1.19556871       2.72333853       0.05121065      -0.00374904      -0.07680643      -0.08424001
14
Lattice="6.448904991149902 0.0 -2.746415376663208 -0.3632125828128218 7.789357461839386 -0.8545902967453003 0.0 0.0 9.130186080932617" Properties=species:S:1:pos:R:3:forces:R:3 sample_seed=85005 sample_index_within_seed=0 benchmark_method=TCL dft_verified=F structure_index=0 total_energy=-129.306884765625 stress="0.05439849570393562 0.02977430820465088 -0.16789178550243378 0.02977449633181095 -0.566890299320221 0.09864116460084915 -0.16789162158966064 0.09864121675491333 -0.020189883187413216" pbc="T T T"
Eu       2.12677943       5.91937164       4.73300572      -0.00970737      -0.02093806       0.04724314
Eu       4.08117736       6.76228654       1.37381578      -0.11565597       0.00590353      -0.03597017
Eu       4.85199081       0.09159866      -1.32242515       0.13462853      -0.00649512       0.03854717
Eu       1.76780845       1.48021120       1.42938050       0.04415004      -0.00086542      -0.01024271
Eu       0.34174138       0.94690203       7.19532177       0.01059019       0.02986441      -0.03710479
Eu       0.72019758       5.36273294       1.36791013      -0.02987897       0.04689999       0.02308674
Eu       3.15569361       2.02802204       4.82171868       0.02591073      -0.03177287       0.01707527
Eu       3.04383657       3.99230143      -1.06518047      -0.04631624      -0.01629934       0.12731092
Eu       5.88250479       2.87520485       1.12866229       0.03734563       0.01341715      -0.11476490
Si       3.31159230       3.95321353       2.42961509      -0.10577123       0.12799214       0.02461727
Si       1.78924275       6.80363456      -1.23445421      -0.12911832      -0.13369212       0.06063629
Eu       5.77082353       4.84080907       4.37693826      -0.02390527       0.01009259       0.00997007
Si       0.70110513       0.06513962       4.01496042       0.10189915       0.10172530      -0.01570014
Si       5.61167507       2.90779001      -2.32159550       0.10582910      -0.12583223      -0.13470419
9
Lattice="4.223297595977783 0.0 -0.009745102375745773 -0.04221409093160061 7.197670169531481 -4.199118137359619 0.0 0.0 8.343026161193848" Properties=species:S:1:pos:R:3:forces:R:3 sample_seed=85006 sample_index_within_seed=0 benchmark_method=TCL dft_verified=F structure_index=0 total_energy=-101.6837387084961 stress="-1.3828855752944946 -0.14034175872802734 -0.05230816826224327 -0.14034171402454376 -0.5789546370506287 -0.06894244998693466 -0.05230812728404999 -0.06894297897815704 -0.4425767958164215" pbc="T T T"
Gd       3.81990712       5.08298741       4.34094337      -0.01196131      -0.08043239       0.06891181
Gd       1.69405962       6.84358771      -1.72970970       0.00540569       0.00173171       0.08115958
Gd       1.71295041       4.01025062       1.69263616       0.00143597      -0.07179578      -0.05458394
Gd       3.84056612       1.39731913       0.18039980       0.01028707       0.12917969       0.07110304
Gd       1.72064366       2.49361718       5.85813338       0.00224438       0.05386688      -0.02696544
Pb       3.83568658       2.04864584       3.32992160      -0.00149731      -0.02031441       0.00494669
Gd       3.80911407       6.84916447       1.29092302      -0.00831193      -0.00053362      -0.13804267
Si       1.69660806       6.84181588       3.32779002       0.00264865      -0.00907034      -0.01086774
Pb       3.82104942       4.44648079      -0.84257476      -0.00025120      -0.00263178       0.00433867
4
Lattice="3.7131707668304443 0.0 0.9380278587341309 1.7521585750100501 3.27039484428323 0.9354256391525269 0.0 0.0 7.930024147033691" Properties=species:S:1:pos:R:3:forces:R:3 sample_seed=85007 sample_index_within_seed=0 benchmark_method=TCL dft_verified=F structure_index=0 total_energy=-35.07499694824219 stress="-2.8904361724853516 0.07926195859909058 0.2886143624782562 0.0792619064450264 -3.0441248416900635 0.1449297070503235 0.28861406445503235 0.14492955803871155 -3.224998950958252" pbc="T T T"
Eu       3.23684825       1.82110675       4.33853011       0.08805369       0.04868758      -0.28077590
I        2.02616638       1.09622694       1.29201862      -0.01075466      -0.00662080       0.01859428
Eu       0.80422853       0.36385564       6.18557112      -0.07623984      -0.03729127       0.25842831
N        4.75403428       2.72943519       6.19719901      -0.00105928      -0.00477548       0.00375331
12
Lattice="5.493144512176514 0.0 0.00644136406481266 0.002976206961615819 7.356447094641937 0.023830188438296318 0.0 0.0 10.0030517578125" Properties=species:S:1:pos:R:3:forces:R:3 sample_seed=85008 sample_index_within_seed=0 benchmark_method=TCL dft_verified=F structure_index=0 total_energy=-105.68931579589844 stress="-0.03189605847001076 0.007277955766767263 0.02367003634572029 0.007278006058186293 -0.35177236795425415 0.06781493127346039 0.02367030270397663 0.06781494617462158 -0.1283537596464157" pbc="T T T"
Eu       1.31853115       2.69194857       7.96475253      -0.00013718      -0.00454432       0.01652671
Eu       1.31747398       3.99202282       1.63247378       0.00354225      -0.05372879      -0.03006288
Eu       4.06562265       1.14571735       0.07889532       0.00126483       0.05405958       0.04196680
Sn       1.32076847       4.29497150       4.90322758      -0.00551751       0.06641798       0.03663098
Eu       1.31956885       6.37452862       8.76770629      -0.00038471      -0.01493732      -0.02493677
Eu       4.06815373       6.12646471       2.97453683      -0.00000398       0.01319518       0.02995051
Eu       4.06396059       2.45491941       3.75385936       0.00369200      -0.00091255      -0.02217691
Sn       4.06727788       0.84984829       6.80996328      -0.00642467      -0.07262120      -0.01525909
Sn       1.32097155       0.60681472       1.81232081      -0.01178431       0.11322238      -0.05682629
Eu       1.32031893       0.32234691       5.07506098      -0.00224347      -0.06019532       0.04382536
Sn       4.06481039       4.53113291       9.91390418       0.00635156      -0.10069136       0.02673332
Eu       4.06248927       4.81989331       6.64608576       0.01164524       0.06073572      -0.04637174
8
Lattice="4.094390869140625 0.0 0.016214238479733467 0.02412730904269624 5.644210745571443 0.03688986971974373 0.0 0.0 8.710049629211426" Properties=species:S:1:pos:R:3:forces:R:3 sample_seed=85009 sample_index_within_seed=0 benchmark_method=TCL dft_verified=F structure_index=0 total_energy=-57.934303283691406 stress="0.45521584153175354 0.06622970849275589 0.03840166702866554 0.06622979044914246 -0.32088688015937805 0.07261999696493149 0.038401275873184204 0.07262007147073746 0.30876222252845764" pbc="T T T"
Eu       3.64586412       2.97740647       8.51001746       0.00177863      -0.00852358       0.01248571
Cu       1.60357027       4.39366628       1.85954961      -0.00098592      -0.00152153       0.00462804
Cu       1.59074532       1.57284570       1.84143983       0.00106097       0.00060612       0.00446738
Eu       1.59090982       0.14758497       7.54617860       0.00316343       0.03043809      -0.08483331
Eu       1.59124859       2.99677895       4.85556130      -0.00394103      -0.03337505       0.07783492
Cu       3.63619780       0.15851875       1.09248098      -0.00785208      -0.01228346      -0.06369245
Eu       3.62885424       0.16496684       3.90282922       0.00055093       0.01397711      -0.00858447
Cu       3.64108645       2.98585367       2.61306459       0.00622506       0.01068229       0.05769417
3
Lattice="3.8625881671905518 0.0 -2.1989099979400635 0.020778792946247262 4.285699540590442 -0.002373834839090705 0.0 0.0 4.439194679260254" Properties=species:S:1:pos:R:3:forces:R:3 sample_seed=85010 sample_index_within_seed=0 benchmark_method=TCL dft_verified=F structure_index=0 total_energy=-20.939393997192383 stress="-0.6554100513458252 0.08475831151008606 0.15173104405403137 0.08475840836763382 0.8183605670928955 -0.010680558159947395 0.15173117816448212 -0.010680499486625195 -0.8088229894638062" pbc="T T T"
Eu       3.18139632       1.18608471       0.74695701      -0.00169515      -0.00669567       0.00364191
Au       1.90354833       3.32551314       2.96264736      -0.00030386       0.00434565      -0.02977331
As       0.61098226       3.32699806       0.73636196       0.00199900       0.00235001       0.02613139
9
Lattice="4.215204238891602 0.0 0.005116186570376158 -2.1006195743826344 5.015789485578453 -0.33933210372924805 0.0 0.0 7.709683418273926" Properties=species:S:1:pos:R:3:forces:R:3 sample_seed=85011 sample_index_within_seed=0 benchmark_method=TCL dft_verified=F structure_index=0 total_energy=-56.704410552978516 stress="-0.5855367183685303 0.0441390722990036 0.02518046461045742 0.044139351695775986 -0.3803883492946625 -0.5137953758239746 0.02518071047961712 -0.513795018196106 -0.885351300239563" pbc="T T T"
Cu      -0.36799801       3.86756278       6.57009122      -0.00346461       0.10126410      -0.06952639
Pd       1.74173006       4.55890858       5.26368532      -0.00435845       0.03261684      -0.04204435
Cu      -0.36489673       4.80840898       0.99809765       0.01604762       0.04362245      -0.05050873
Eu       1.73617706       1.71816232       6.60032868      -0.00194131      -0.06305194       0.24063444
Eu       1.74066841       3.07329194       2.56938461      -0.00249697       0.10045690      -0.08195253
Pd      -0.36841034       0.97011331       2.02427236      -0.02103152      -0.12465163      -0.01495504
Pd      -0.37072110       2.33343514       4.54430101       0.00222576      -0.15417407      -0.10244091
Be       1.73791610       4.70812826      -0.19904035       0.00920227      -0.03611507       0.14721374
Pd       1.73477280       0.22641133       3.92371558       0.00581723       0.10003239      -0.02642032
11
Lattice="5.434121608734131 0.0 -3.1896376609802246 -1.8291953921327606 4.995223770955992 -3.06520414352417 0.0 0.0 6.201999187469482" Properties=species:S:1:pos:R:3:forces:R:3 sample_seed=85012 sample_index_within_seed=0 benchmark_method=TCL dft_verified=F structure_index=0 total_energy=-71.9516830444336 stress="0.4034266173839569 0.9595765471458435 -0.13595972955226898 0.9595763087272644 -3.310598134994507 2.127150774002075 -0.13595981895923615 2.1271519660949707 0.0322253592312336" pbc="T T T"
Dy       3.80868539       0.88937494       0.55603407       0.01261455      -0.01834907       0.02333519
Fe       1.65263988       3.00172134       1.11693399      -0.11423707       0.33748543      -0.27069455
Fe      -0.70997386       4.60687268       1.16445164       0.14954054      -0.48018658       0.12176684
Fe      -0.71673575       2.16356309       1.13638485      -0.03371572       0.53469568      -0.22564307
Fe       1.08855488       0.89207081       2.15355689       0.03969203      -0.05665838       0.03971916
Fe       0.47251188       3.76778265      -0.89452493       0.03453438      -0.24873967       0.23371252
Ge       2.88862873       3.38714596      -0.96677545       0.02333565       0.02360073       0.00551802
Ge       0.80247039       1.36534393      -0.53028825      -0.10872118      -0.09898910       0.27747697
Ge       3.30085805       0.42328658       3.70933918      -0.30789563      -0.01434171      -0.05764001
Ge       0.30010863       3.35651403       3.04871821       0.13978620      -0.19006121      -0.05262157
Ge       3.54973539       3.41538349      -3.84731832       0.16506636       0.21154404      -0.09492958
9
Lattice="5.899278163909912 0.0 -0.48472848534584045 -3.8140456738676676 5.641534741120362 -0.5212295055389404 0.0 0.0 7.093515872955322" Properties=species:S:1:pos:R:3:forces:R:3 sample_seed=85013 sample_index_within_seed=0 benchmark_method=TCL dft_verified=F structure_index=0 total_energy=-64.16240692138672 stress="0.4136527180671692 0.10270178318023682 0.7048578858375549 0.10270185768604279 1.5070996284484863 -0.2197171449661255 0.7048577666282654 -0.21971721947193146 -0.6431347131729126" pbc="T T T"
Eu      -1.40602123       3.89262634       1.86404699      -0.08179611      -0.07878432      -0.07295792
Ag       0.53430701       3.46677211       4.43091478      -0.01995593       0.17344794       0.12107369
Eu       5.41519711       0.27420847       2.99077961       0.09017231       0.07749059       0.08427993
Eu       0.48788567       1.02239210       6.86671715      -0.15301576      -0.03587667       0.01431125
Ge       2.00669596       2.08022451       2.43147247      -0.00623523      -0.00185410      -0.02891115
Ge       1.26917120       4.01395527       0.04892356       0.04325370       0.03537588      -0.01320272
Ag       3.47295428       0.68997592       0.43185032       0.01098002      -0.15249838      -0.13224758
Ge       2.75492530       0.14683586       4.82250229      -0.04915018      -0.03837860      -0.00882464
Eu       3.51442996       3.14712210       5.06965384       0.16574715       0.02107761       0.03647906
11
Lattice="2.805973768234253 0.0 0.0003219990467187017 0.003149010869878385 2.81173863503783 0.002356902463361621 0.0 0.0 17.989992141723633" Properties=species:S:1:pos:R:3:forces:R:3 sample_seed=85014 sample_index_within_seed=0 benchmark_method=TCL dft_verified=F structure_index=0 total_energy=-91.10130310058594 stress="-1.1903400421142578 0.08300326019525528 0.13566651940345764 0.08300375938415527 -0.9530014395713806 0.06569064408540726 0.13567183911800385 0.06568988412618637 -1.284245252609253" pbc="T T T"
Mn       0.42735664       2.75675851       1.25744728       0.00631824      -0.00184280      -0.10488507
Mn       1.83184164       1.34226773       6.00855982      -0.01081641      -0.05909796       0.29306605
Mn       0.45714820       2.74789806      13.90062984      -0.00235106      -0.02872554       0.16687979
Mn       0.45653932       2.73463360      11.05306593      -0.02374623       0.05315668      -0.30159810
Mn       0.43983389       2.75684080      16.28189868      -0.02793730       0.00748539       0.19491638
Mn       1.85479111       1.33873563      12.47073304       0.01424160      -0.01578632       0.40635014
Hf       0.44296224       2.73492705       7.96217027      -0.00842616       0.06738991      -1.00254548
Mn       1.83310181       1.35043871      17.81086518       0.00032458       0.00596112      -0.54906994
Zn       0.42125416       2.74210304       4.44371435       0.04128020       0.05530754      -0.61672795
Mn       1.82607883       1.35146329       2.64037318       0.00571451      -0.03187491       0.35235795
Mn       1.85116335       1.33682549       9.67790782       0.00539827      -0.05197306       1.16125643
8
Lattice="6.159749984741211 0.0 -0.0002646170323714614 0.030257682415357756 6.530140872086411 -3.7842323780059814 0.0 0.0 7.542499542236328" Properties=species:S:1:pos:R:3:forces:R:3 sample_seed=85015 sample_index_within_seed=0 benchmark_method=TCL dft_verified=F structure_index=0 total_energy=-73.31262969970703 stress="-0.7794710397720337 0.02558484859764576 0.0014389300486072898 0.025584803894162178 -0.878657877445221 -0.010976972989737988 0.001438987092114985 -0.010976888239383698 -0.8661668300628662" pbc="T T T"
Eu       5.02737986       1.66818060      -0.22357755      -0.00001702       0.01241264      -0.00321392
Eu       5.04625857       4.93233674       1.66292977      -0.00397360       0.00445845      -0.00646288
Eu       1.95493420       2.73706687       1.71715103       0.00117643      -0.01293914       0.01470411
Eu       1.96893585       6.02847394       3.55120402      -0.00034562       0.00429449      -0.00928127
Eu       1.96669380       6.09347792      -0.22458222      -0.00010889       0.01778484       0.00487043
Eu       5.04130382       4.94943781      -2.11291763      -0.00017325      -0.01001112       0.00931648
Eu       1.94872982       2.74053040       5.38457757       0.00513274      -0.01479593      -0.01199567
Mg       5.02861119       1.67798795       3.55069901      -0.00169079      -0.00120421       0.00206272
8
Lattice="4.187229156494141 0.0 -0.0002043380809482187 -0.0008613204366720249 4.519014276437022 -0.0054535456001758575 0.0 0.0 5.157581329345703" Properties=species:S:1:pos:R:3:forces:R:3 sample_seed=85016 sample_index_within_seed=0 benchmark_method=TCL dft_verified=F structure_index=0 total_energy=-64.36564636230469 stress="1.1645663976669312 -0.010863183066248894 -0.0064232926815748215 -0.010862687602639198 3.81423020362854 -0.131522074341774 -0.006423260550945997 -0.1315220296382904 1.6634334325790405" pbc="T T T"
Mn       4.02987059       4.17290728       4.71409895      -0.01838367       0.03546716       0.01796382
Mn       1.93477902       3.42513142       3.42743196       0.00768103       0.01106668      -0.01239854
Mn       1.93320153       1.13376318       4.72630750       0.02343904      -0.03201579      -0.05797085
Ge       1.93495416       3.40192521       0.84733934       0.01003842      -0.00922187       0.01735581
Mn       4.02900023       1.88571766       0.85073388      -0.00994131      -0.04650036       0.01454750
Ge       4.02911318       1.90200349       3.42990660      -0.01677668       0.01818292      -0.00968844
Mn       4.02946008       4.17790703       2.13832478      -0.01334000      -0.01973326      -0.01775519
Mn       1.93378743       1.12517293       2.13693578       0.01728318       0.04275447       0.04794588
20
Lattice="6.225168228149414 0.0 0.005832618568092585 0.06610085964788164 6.287425676692498 -0.016598591580986977 0.0 0.0 5.636695861816406" Properties=species:S:1:pos:R:3:forces:R:3 sample_seed=85017 sample_index_within_seed=0 benchmark_method=TCL dft_verified=F structure_index=0 total_energy=-161.9755401611328 stress="-3.7782511711120605 0.6660105586051941 0.1576189547777176 0.6660094857215881 -1.3416482210159302 -0.39541932940483093 0.15761882066726685 -0.3954199254512787 -2.8373911380767822" pbc="T T T"
Mn       5.68833426       5.91179796       4.29490604       0.04472599       0.06578913      -0.02878912
Mn       1.33515218       5.27702311       2.89538007      -0.15060526      -0.09974726      -0.02673699
Mn       0.04494761       1.53007164       2.88002412       0.05244837      -0.20421919       0.08421105
Mn       0.03616956       1.52081217       0.09960732       0.00831252      -0.20206754      -0.14001998
Mn       2.56336848       2.75146602       0.07637894      -0.04865278      -0.04874066      -0.03290895
Mn       3.20083557       4.64377203       4.28963593      -0.07480028       0.10861722      -0.06184300
Mn       0.68139773       3.40508380       4.31298858       0.03180581       0.10514097      -0.06854303
Co       2.53077490       2.75973435       2.90897325       0.14718649      -0.01902332      -0.04745230
Mn       3.75636095       0.25159664       0.10233500       0.15741362      -0.15643895      -0.09860905
Co       4.42516461       2.10488530       4.30691789      -0.16460663       0.09630011      -0.02585245
Mn       3.19207071       4.61988334       1.48077084      -0.05928671       0.18777958       0.21145871
Co       1.89207256       0.86636693       1.48270019      -0.00432471       0.06619698       0.07928485
Mn       5.69192984       5.87065721       1.47459720       0.06829906       0.19925544       0.12388121
Co       1.90628479       0.86766734       4.30655989      -0.14521173      -0.00948599       0.07822023
Mn       3.75590977       0.26592689       2.89515306       0.05583612      -0.22320089      -0.00394579
Co       4.40937670       2.13388346       1.49994006      -0.08226719       0.01988575       0.00793350
Co       1.34761820       5.26044261       0.06601407      -0.12663583       0.11034499      -0.01877039
Co       5.03904856       4.01834931       2.90706937       0.11987350      -0.02747022      -0.04603358
Co       5.02823546       4.03172673       0.07560452       0.23443624      -0.09781590      -0.05039747
Co       0.69752752       3.39494654       1.47251074      -0.06394654       0.12889971       0.06491262
6
Lattice="6.025794506072998 0.0 -0.023071004077792168 0.016775959067365603 5.748099642163404 -3.2980031967163086 0.0 0.0 6.623410224914551" Properties=species:S:1:pos:R:3:forces:R:3 sample_seed=85018 sample_index_within_seed=0 benchmark_method=TCL dft_verified=F structure_index=0 total_energy=-53.41648483276367 stress="-0.43185973167419434 0.022987931966781616 -0.023624693974852562 0.022987907752394676 0.10532631725072861 -0.026461610570549965 -0.023624727502465248 -0.02646154724061489 0.03788696974515915" pbc="T T T"
Y        3.82445987       1.65021869      -0.93927919      -0.00861517       0.05171682      -0.03523782
Eu       3.82589118       5.40331780      -0.93201116       0.00503206      -0.02373526      -0.00851307
Y        0.80893086       3.48892925      -1.98339246       0.00529975      -0.06976604       0.04265280
Eu       0.79872535       1.60355457       1.28069610       0.00968414       0.00517519      -0.04843451
Eu       3.82588564       3.52284490       2.43325061      -0.00144849      -0.00306264       0.03261167
Eu       0.82546246       5.46421049       1.33483773      -0.00995231       0.03967194       0.01692094
16
Lattice="4.908057689666748 0.0 0.23719437420368195 0.18439652512333235 4.974483552346146 -0.7449085116386414 0.0 0.0 6.5233917236328125" Properties=species:S:1:pos:R:3:forces:R:3 sample_seed=85019 sample_index_within_seed=0 benchmark_method=TCL dft_verified=F structure_index=0 total_energy=-145.8014678955078 stress="1.5280795097351074 3.33512806892395 3.540769577026367 3.3351285457611084 6.0359578132629395 4.059064865112305 3.540769577026367 4.059064865112305 6.178644180297852" pbc="T T T"
Mn       4.06648282       3.75341908       5.82422682      -0.19039688       0.43927234       0.24585764
Mn       3.42699015       4.26789538       3.37150498       0.34845239      -0.46479681      -0.12529790
Mn       1.56023376       2.34744315       2.99770621       0.05595797      -0.26593450      -0.04927319
C        2.21161187       0.92565187       4.28958526       0.08749837       0.15097193       0.05359810
Mn       0.83897999       1.85497384       5.32816807      -0.38767618       0.22941506       0.38775295
Mn       0.96491868       3.36115925       0.78572558       0.39255279       0.21577770      -0.29338282
C        4.36213678       4.42758294       1.55651440       0.23614781      -0.59182793       0.76354063
Mn       3.37259306       2.70074421       1.40114074      -0.17005804      -0.03666106       0.01060545
Mn       1.64047204       4.38875892       5.15128968      -0.29482695       0.13207203      -0.02857181
Mn       0.91118615       4.83260452       2.77609535      -0.24866311       0.14330705      -0.27081877
Mn       3.95339416       1.77794224       3.67070069      -0.00296940      -0.06390006      -0.19629681
C        1.79359269       1.60703059       0.66903475       0.50137979       0.66756362      -0.57367152
Mn       3.27718758       1.19878840       5.99366862       0.43058744      -0.35474294      -0.13945089
Mn       2.56240624       0.24759864       1.77143130      -0.63976610      -0.08017588       0.20877248
C        0.19040252       3.36667271       4.01290365       0.25890565      -0.04515310      -0.15817243
Mn       0.11360161       0.89488745       1.12206149      -0.37712544      -0.07518722       0.16480872
4
Lattice="2.7679123878479004 0.0 -0.004114076029509306 -1.370881247478337 2.395960904236086 -0.0007385499193333089 0.0 0.0 8.41033935546875" Properties=species:S:1:pos:R:3:forces:R:3 sample_seed=85020 sample_index_within_seed=0 benchmark_method=TCL dft_verified=F structure_index=0 total_energy=-23.252199172973633 stress="-1.571586012840271 0.35648617148399353 -0.05327042192220688 0.3564862906932831 -1.6051709651947021 -0.053976986557245255 -0.053271304816007614 -0.05397714674472809 -0.49341604113578796" pbc="T T T"
Be       0.24445959       1.11534043       6.87381325       0.02716892      -0.00515532      -0.05035777
Pt       1.63676430       1.90911454       0.17792052      -0.00991295       0.00780054       0.21657063
Pt       0.25081655       1.11230414       2.65889923      -0.00034957       0.00065050       0.02639441
Pt       1.63947005       1.91452491       5.14292311      -0.01690642      -0.00329573      -0.19260722
12
Lattice="3.9797260761260986 0.0 0.003014767775312066 -1.9862704243960823 3.449646482174349 -0.009568551555275917 0.0 0.0 9.920843124389648" Properties=species:S:1:pos:R:3:forces:R:3 sample_seed=85021 sample_index_within_seed=0 benchmark_method=TCL dft_verified=F structure_index=0 total_energy=-95.26534271240234 stress="2.0174057483673096 0.1227651834487915 0.09059880673885345 0.1227646917104721 2.3876705169677734 -0.1816372275352478 0.09060012549161911 -0.1816396266222 0.9820044040679932" pbc="T T T"
Fe       1.32546472       1.42174629       8.64007188       0.01879685       0.01030820       0.05956755
Fe       1.32808403       1.42189371       6.15782562       0.00635561       0.01067405       0.00174988
Fe       1.32728017       1.42062476       3.70237167       0.00311733       0.01427577      -0.25977811
Fe       3.31597404       0.27301589       7.81972449       0.00040204      -0.00192602      -0.14912203
Fe       3.31709210       0.27224453       0.36837631      -0.00346930      -0.00510232       0.18417461
Fe       3.31712814       0.27221901       2.85559478      -0.02156731      -0.01135382      -0.04384062
Si      -0.66568518       2.57193135       2.09713633       0.04264713      -0.00229662       0.60316306
Si       3.31707423       0.27536990       5.32042392      -0.00477678      -0.02595412      -0.15926370
Fe       1.32865311       1.42218702       1.19769008      -0.01922599       0.00060771       0.13409480
Fe      -0.66080340       2.57181497       4.51762500      -0.00203738       0.01146646      -0.00129023
Fe      -0.65959350       2.57289692       6.95692637      -0.01425383      -0.00816900       0.07900181
Si      -0.66064677       2.57102068       9.41391809      -0.00598831       0.00746961      -0.44845685
12
Lattice="4.386716365814209 0.0 -0.0032204408198595047 -0.001509717875570787 7.1276424716428295 0.08180888742208481 0.0 0.0 7.868413925170898" Properties=species:S:1:pos:R:3:forces:R:3 sample_seed=85022 sample_index_within_seed=0 benchmark_method=TCL dft_verified=F structure_index=0 total_energy=-79.20092010498047 stress="0.4389623701572418 -0.0032055021729320288 -0.01982787996530533 -0.0032053098548203707 -0.5724132061004639 -0.2371603399515152 -0.019827786833047867 -0.23716041445732117 0.23698855936527252" pbc="T T T"
Eu       3.59642462       6.66384866       1.63888508      -0.00343428      -0.06567250      -0.00367160
Eu       3.59503817       3.13524778       0.53657954       0.00093476       0.02151703      -0.05559645
Eu       1.40386530       2.85278231       5.42512425      -0.00235393       0.04161515       0.01176829
Mg       1.40296923       6.41237192       4.48829514      -0.00045677      -0.06641092       0.03106154
Ga       1.40199499       5.44770974       7.44547813       0.00278862       0.01811352       0.04038153
Pt       3.59586110       1.40169783       3.86542151       0.00143745      -0.18770096      -0.02125297
Pt       3.59593102       5.12055529       6.00576799      -0.00200567       0.10820414      -0.14458980
Pt       1.40216623       4.52628189       2.24245472       0.00073465       0.07599184       0.05225151
Ga       1.40188243       1.83259814       2.43721518       0.00285526      -0.07168214       0.05249662
Pt       1.40331414       0.93745825       7.78945055       0.00087982       0.01539144      -0.03614142
Ga       3.59619445       4.10770727       3.56711236       0.00021042       0.06610176       0.14754289
Ga       3.59710315       0.52738257       6.32025613      -0.00159029       0.04453164      -0.07425013
10
Lattice="3.7040655612945557 0.0 0.003291661385446787 -1.8534730180775236 5.587250271383984 0.004464240279048681 0.0 0.0 7.354689121246338" Properties=species:S:1:pos:R:3:forces:R:3 sample_seed=85023 sample_index_within_seed=0 benchmark_method=TCL dft_verified=F structure_index=0 total_energy=-65.46765899658203 stress="-10.7758150100708 -0.0016777883283793926 0.0874863788485527 -0.0016770591028034687 -17.994224548339844 0.2812972068786621 0.08748801052570343 0.28129735589027405 -12.843925476074219" pbc="T T T"
Ge       1.40036794       3.15217699       5.00727324       0.01692700       0.35277826      -0.01651634
Sm       1.40192188       0.06321274       4.98825210       0.00210898       0.21479526      -0.00764843
Mn       1.40448925       4.18804425       2.76024189      -0.03655699       0.58713806      -0.16940697
O        3.25287152       0.50537097       3.16233626      -0.00087033      -0.09658951      -0.01743611
Mn      -0.44978047       2.38106029       6.43584759      -0.01823275      -0.12318850      -0.19443583
Mn       1.40141319       4.20876812       7.24476271       0.00042688       0.26807433       0.14954203
Sm       1.40506855       0.94321849       1.32713652      -0.00839765      -0.20665298       0.01708986
O        3.25788648       0.50622497       6.83346876       0.00066476      -0.13524932       0.02459227
Mn      -0.45053002       2.40068002       3.56174334       0.00925696      -0.47651741       0.20561461
Ge      -0.45165972       3.44580274       1.31708905       0.03467349      -0.38458803       0.00860526
4
Lattice="3.5460727214813232 0.0 -0.0021010974887758493 0.002046842697575363 3.5410066887715383 -0.006906906142830849 0.0 0.0 8.56540584564209" Properties=species:S:1:pos:R:3:forces:R:3 sample_seed=85024 sample_index_within_seed=0 benchmark_method=TCL dft_verified=F structure_index=0 total_energy=-30.645397186279297 stress="-0.33026713132858276 0.005198352504521608 -0.008940745145082474 0.005198302678763866 -0.35253459215164185 -0.018592307344079018 -0.00894080474972725 -0.018592312932014465 0.13557618856430054" pbc="T T T"
Eu       0.31375858       0.02993094       4.56179797       0.00174220      -0.00316466      -0.08522157
Eu       0.31744396       0.02702680       1.09048759      -0.00177080      -0.00211472       0.13634004
Li       2.08941926       1.79464866       7.14315411       0.00011028       0.00184998      -0.03157903
Rh       2.08966873       1.79695217       2.82783594      -0.00008167       0.00342941      -0.01953944
10
Lattice="3.439060688018799 0.0 -0.0020012042950838804 -0.006580483216475588 3.4379474127983127 0.0006891938974149525 0.0 0.0 16.990568161010742" Properties=species:S:1:pos:R:3:forces:R:3 sample_seed=85025 sample_index_within_seed=0 benchmark_method=TCL dft_verified=F structure_index=0 total_energy=-105.69717407226562 stress="-2.924456834793091 -0.08667029440402985 -0.02324002981185913 -0.08667048811912537 -2.9314017295837402 0.007510746363550425 -0.02324034459888935 0.00751079386100173 -3.1419715881347656" pbc="T T T"
Gd       1.92683546       1.00298832       6.84129557      -0.00558436       0.00083614       0.05617978
Gd       1.92222519       1.00575491       0.08321082       0.00314487      -0.00572474      -0.06143790
Dy       1.92510582       1.00373022       3.46592183      -0.00372484      -0.00031199      -0.00100978
Gd       1.92486139       0.99981435      13.65254711      -0.00109959       0.00483168       0.03331400
Gd       1.92198259       1.00045707      10.24811816       0.00759528       0.00334594      -0.01412637
Rh       0.20229124       2.72215844       5.13376124       0.00199250       0.00077818      -0.07912397
Rh       0.19988893       2.72305802       1.80807269       0.00375452       0.00161261       0.03673113
Rh       0.20131828       2.72225864      15.36632154      -0.00182522      -0.00199615       0.05673514
Rh       0.20177081       2.72232053       8.54092920      -0.00052330      -0.00541988      -0.04293052
Rh       0.20181580       2.71877094      11.94787886      -0.00372992       0.00204824       0.01566840
11
Lattice="4.2141313552856445 0.0 -1.110745906829834 -0.9533379487319136 6.917039004196302 -3.600031614303589 0.0 0.0 8.604576110839844" Properties=species:S:1:pos:R:3:forces:R:3 sample_seed=85026 sample_index_within_seed=0 benchmark_method=TCL dft_verified=F structure_index=0 total_energy=-54.99089050292969 stress="0.4156128764152527 -0.058686453849077225 -0.15029869973659515 -0.058686401695013046 0.030145857483148575 -0.11569143086671829 -0.15029865503311157 -0.11569139361381531 -0.012861255556344986" pbc="T T T"
Eu       1.85823699       6.57880357      -1.04293140       0.01198259       0.03449703       0.04210296
Mg       0.99792900       6.48604339       4.27632504      -0.00360967      -0.05105374      -0.01741843
Mg       1.36689158       3.79999180       5.66987776      -0.01083801       0.03512372      -0.04829566
Eu       3.58511968       1.30439763       5.52595677      -0.01214099      -0.03595106      -0.05250169
Mg       0.23063815       1.40068937       1.31470895       0.00542738       0.03992961       0.01891292
Eu       2.72038682       3.93902592       2.23829717       0.00242207       0.00465245       0.00491801
Cu       1.98610970       2.38614344      -0.57386687       0.01717321       0.03472965       0.05680295
Cu       0.93198895       1.64105576       3.99297124      -0.00644463       0.03528749      -0.02296548
Cu       0.29734672       6.23841147       1.59747610       0.00647817      -0.02901127       0.02815903
Mg      -0.13670800       4.08417055      -0.07827332       0.00707569      -0.03494598       0.04019228
Cu      -0.75721204       5.49777422      -2.44403542      -0.01752580      -0.03325791      -0.04990690
16
Lattice="4.250293731689453 0.0 0.004195080604404211 -2.1059266622909685 5.489213189111036 -1.8919607400894165 0.0 0.0 7.967526912689209" Properties=species:S:1:pos:R:3:forces:R:3 sample_seed=85027 sample_index_within_seed=0 benchmark_method=TCL dft_verified=F structure_index=0 total_energy=-141.59378051757812 stress="4.149310111999512 0.3754868805408478 -0.01266680657863617 0.3754851520061493 3.4789230823516846 2.4553334712982178 -0.012666922993957996 2.4553356170654297 4.628020763397217" pbc="T T T"
Mn       1.03898095       1.89292705       1.38807046       0.00988066      -0.09153330       0.35159138
Mn       3.16681330       1.77299827       7.03702576      -0.03302793      -0.08667431      -0.13521370
Mn       1.03466466       0.44267798       3.24072643       0.02818049      -0.22696716      -0.16410638
Mn       1.04434608       4.60741976       5.60368852       0.01942513       0.04902263       0.07054811
Mn      -0.00471715       5.27146139       3.48967699      -0.26403075       0.09784545      -0.00447043
Fe       1.03956940       3.06975478       3.47211756       0.03808184       0.10905308      -0.43966877
Mn       1.04229496       1.98014248       5.40752856      -0.01005158      -0.27342159       0.47800094
Mn       1.03510399       0.51542691       7.52174885      -0.01799398      -0.17500411      -0.06148841
Mn       1.03740941       3.13887766      -0.50850234       0.01546054       0.15652870      -0.43148029
Fe       3.16032808       0.55628707       1.42925377      -0.01018033       0.30625975      -0.10361856
Mn       2.10891758       5.26828477       3.48767804       0.26019758       0.09129040       0.02821321
Mn      -1.07759013       3.27813639       1.82245210      -0.01863035      -0.08403045       0.25275719
Fe       1.04880040       4.53369996       1.37274282       0.01687554       0.07888176       0.01037448
Mn      -1.08724650       3.47626215       5.04769125       0.04082014       0.18459970      -0.40073571
Mn       3.17442035       1.54855329       3.79944911      -0.08105232      -0.10554905       0.23248509
Mn      -1.08067259       4.46440203      -0.56692912       0.00604522      -0.03030150       0.31681156
12
Lattice="4.704093933105469 0.0 -0.7710137963294983 -1.0121377569624885 4.617621203455418 -0.7952316403388977 0.0 0.0 4.7721405029296875" Properties=species:S:1:pos:R:3:forces:R:3 sample_seed=85028 sample_index_within_seed=0 benchmark_method=TCL dft_verified=F structure_index=0 total_energy=-105.82563781738281 stress="-16.731977462768555 -0.810313880443573 0.1859665960073471 -0.810312807559967 -14.610467910766602 0.2841823101043701 0.18596547842025757 0.28418728709220886 -14.270556449890137" pbc="T T T"
Mn      -0.43713351       2.23987181      -0.19955788      -0.23493508      -0.12523016      -0.37275788
Fe       0.88461866       2.92684470       2.32266497      -0.14774226      -0.08823478      -0.18792695
Fe       3.17033821       1.53342670       1.48344600      -0.19117744       0.12898597       0.13045922
C        2.56567984       2.57099161       3.02090895       0.29653466      -0.21932715       0.22516072
Mn       3.19815308       4.25831561       2.31415743      -0.05083728       0.29769868       0.06938624
C        3.65908358       0.66204419      -0.08694336      -0.22592819      -0.66795933      -0.49449342
Mn       0.70585060       0.27051313       1.43849464       0.12332407       0.01733085      -0.08904132
Mn       1.96140053       3.60763822      -0.16715606      -0.10493037       0.07350752      -0.21712902
C        1.42517865       4.50118857       1.39174433       0.25654396       0.21422449       0.29674900
Fe       1.90770390       0.88161610       3.73303401      -0.02532454       0.06449926       0.17971316
C        0.18736793       1.26814837       2.97008847      -0.50626349       0.57383752       0.63621587
C        0.21944699       3.89924232       3.85033702       0.81073582      -0.26933211      -0.17633586
8
Lattice="4.513437747955322 0.0 0.03212747350335121 0.05374004311484469 5.926804573116776 0.052080150693655014 0.0 0.0 7.6731977462768555" Properties=species:S:1:pos:R:3:forces:R:3 sample_seed=85029 sample_index_within_seed=0 benchmark_method=TCL dft_verified=F structure_index=0 total_energy=-67.5291976928711 stress="0.053082533180713654 0.21135976910591125 0.17031702399253845 0.21135970950126648 0.21032339334487915 0.14876268804073334 0.17031702399253845 0.14876271784305573 -0.06689248234033585" pbc="T T T"
Pd       0.53516006       0.28589491       2.81776602      -0.00613141       0.05001258      -0.06789055
Eu       0.57684487       4.63442737       5.58215277      -0.00432966      -0.03769042       0.02341739
Eu       0.56214256       3.22338808       1.72604848       0.00768924       0.02494864       0.03103865
Eu       2.79418242       0.26062964       0.67109470      -0.00324489       0.02225335      -0.03591587
Pd       0.54636148       1.64136725       6.66894215       0.02777626      -0.04935943      -0.06497400
Eu       2.80502183       1.65794297       4.50986200      -0.00517503       0.01487659       0.01065955
Pd       2.82204418       3.25692000       7.24928018      -0.02650334       0.03593318       0.05917283
Pd       2.83191296       4.60165780       3.43904013       0.00991880      -0.06097453       0.04449194
4
Lattice="4.421542644500732 0.0 -1.8261610269546509 -0.7636104573884952 4.361905992378231 -1.8317654132843018 0.0 0.0 6.291506290435791" Properties=species:S:1:pos:R:3:forces:R:3 sample_seed=85030 sample_index_within_seed=0 benchmark_method=TCL dft_verified=F structure_index=0 total_energy=-37.71620178222656 stress="-0.16293637454509735 0.2095831036567688 0.5370932221412659 0.2095830887556076 -0.04731809347867966 0.6242675185203552 0.5370932817459106 0.6242674589157104 0.9843708872795105" pbc="T T T"
Gd       3.79829989       2.05398084      -0.41934338       0.00409612      -0.00164994       0.00608779
Gd       1.20854667       4.23560994      -0.41882023      -0.00386291      -0.00100013       0.00005049
Dy       0.67198194       0.95944791       4.55585069       0.00523618       0.00695856       0.00070423
Pb       2.50532232       3.14513448       2.73147892      -0.00546941      -0.00430847      -0.00684250
10
Lattice="4.2810444831848145 0.0 0.007431395351886749 -0.01326719251029057 4.282026718613572 -0.001381491543725133 0.0 0.0 10.574553489685059" Properties=species:S:1:pos:R:3:forces:R:3 sample_seed=85031 sample_index_within_seed=0 benchmark_method=TCL dft_verified=F structure_index=0 total_energy=-57.27177429199219 stress="1.2148919105529785 -0.03617144003510475 0.0455377995967865 -0.03617169335484505 1.2237063646316528 -0.010055972263216972 0.04553773254156113 -0.01005589496344328 1.7506120204925537" pbc="T T T"
Al       1.60160519       3.69820438       1.01989161       0.01008482      -0.00065990       0.02772606
Al       3.75064279       1.55718834       3.66544263      -0.00545783       0.00269284      -0.03762820
Al       1.60868224       1.55777677       7.62847328       0.00015471      -0.00247100      -0.00403488
Eu       3.74999612       1.55671591      10.27912486       0.00050757       0.00049461      -0.03537737
Cu       1.60927665       1.55736866       2.34001495       0.00772373       0.00070164       0.00146864
Cu       3.74984184       1.55775316       6.23904764       0.00171014      -0.00076552      -0.01840313
Eu       1.60257223       3.69826155       4.97798287      -0.00075602       0.00052252       0.03992270
Pd       3.74324262       3.69870999       2.34361287      -0.01128275      -0.00322561       0.00155602
Al       3.74449461       3.69883454       7.63192511       0.00102709       0.00017150      -0.00538184
Cu       1.60418189       3.69762884       9.01590122      -0.00371153       0.00253891       0.03015194
