20
Lattice="6.225168228149414 0.0 0.005832618568092585 0.06610085964788164 6.287425676692498 -0.016598591580986977 0.0 0.0 5.636695861816406" Properties=species:S:1:pos:R:3 pbc="T T T"
Mn       5.68833426       5.91179796       4.29490604
Mn       1.33515218       5.27702311       2.89538007
Mn       0.04494761       1.53007164       2.88002412
Mn       0.03616956       1.52081217       0.09960732
Mn       2.56336848       2.75146602       0.07637894
Mn       3.20083557       4.64377203       4.28963593
Mn       0.68139773       3.40508380       4.31298858
Co       2.53077490       2.75973435       2.90897325
Mn       3.75636095       0.25159664       0.10233500
Co       4.42516461       2.10488530       4.30691789
Mn       3.19207071       4.61988334       1.48077084
Co       1.89207256       0.86636693       1.48270019
Mn       5.69192984       5.87065721       1.47459720
Co       1.90628479       0.86766734       4.30655989
Mn       3.75590977       0.26592689       2.89515306
Co       4.40937670       2.13388346       1.49994006
Co       1.34761820       5.26044261       0.06601407
Co       5.03904856       4.01834931       2.90706937
Co       5.02823546       4.03172673       0.07560452
Co       0.69752752       3.39494654       1.47251074
