11
Lattice="4.465811002010792 0.23457846451419348 -0.15718832422609852 -1.8256621396078223 7.906905829890847 -0.6722245602233419 -0.1614888823485731 -0.4738564267471974 10.447398517356014" Properties=species:S:1:pos:R:3:forces:R:3 structure_index=0 total_energy=-31.410926818847656 stress="0.004679500591009855 -0.0038088220171630383 2.3437725758412853e-05 -0.0038090338930487633 0.00823058933019638 0.0061201476491987705 2.3203254386316985e-05 0.006120404228568077 0.017672060057520866" pbc="T T T"
Cl       1.92761771       1.62260843       7.14755763       0.02315823       0.02506685      -0.02660443
Te       1.78970961      -0.14534452       4.60476487      -0.00249435      -0.00552630       0.01956521
Cl       4.14821153       0.89638494       0.21771232      -0.00515038      -0.00112852      -0.04643665
Te       2.05639318       7.11503251       7.68124451      -0.00992414       0.00229219      -0.00236669
Te       1.96128426       5.86635965       5.01191711      -0.01099229      -0.01378245      -0.00101629
Te      -0.19105780       3.77347357       5.97754640      -0.00096081       0.00328824       0.00434883
Te       1.96130550       3.15185399       9.65507262       0.00319915       0.01686010      -0.00361273
Te       2.03805891       4.77824037       1.81321777      -0.00525689      -0.02372182      -0.00622516
Te       0.04698265       6.68817468       1.31033621       0.00344440      -0.00920425       0.03975222
Te      -0.14208470       5.01963777       8.65693029       0.00391497       0.01275578       0.00016306
Cl      -0.21933712       2.58967536       3.69657185       0.00106199      -0.00689980       0.02243258
