10
Lattice="5.332968235015869 0.0 -0.0931188091635704 -2.6784096284430916 3.916028216750204 -2.4397575855255127 0.0 0.0 5.644446849822998" Properties=species:S:1:pos:R:3 pbc="T T T"
Fe       3.41718811       1.15426392       0.98072830
Fe       0.76270166       1.16579758       3.86172915
W       -1.90850439       3.46532711      -1.03185472
Mn       0.77407185       3.37542395       1.62638932
O        1.51372383       1.39183694       1.72473295
O       -0.28631619       3.03276760       3.70133464
O        5.10977114       0.20311942      -0.19897622
O       -1.11703009       3.06017945       0.74347485
O        2.64995351       1.70268591      -1.11686897
O        4.59127423       0.27895702       2.46672320
