20
Lattice="5.588369846343994 0.0 0.014587254263460636 1.6048494750248776 5.117913564470769 0.8528417944908142 0.0 0.0 8.363551139831543" Properties=species:S:1:pos:R:3 pbc="T T T"
O        5.59081186       4.39090404       6.67220946
Ti       3.80035651       1.11766714       2.68710765
Na       1.57620622       3.17266289       5.27987515
Ti       2.26861343       4.59304636       2.11860866
Ti       5.28064579       2.95414053       8.06359043
Ti       5.24450766       0.78544426       5.72101786
Na       2.68791293       2.15027177       8.60436532
V        2.43630845       0.33546939       6.59673518
O        5.15932666       1.72098770       4.07889496
O        2.74896454       4.83572422       6.14812193
O        4.94601282       1.55561490       1.23411772
Na       4.24787585       3.79535185       4.73512981
O        1.96745964       0.66702559       2.21461397
O        2.81203211       2.89494072       3.07288760
O        6.15117101       4.44096267       3.43556773
O        6.68328315       3.59232945       0.91788673
V        0.82475839       2.45180671       2.58890878
O        0.91853297       1.71428435       6.99480901
O        3.81891891       4.25621011       8.95850344
O        3.91901252       1.83033140       6.72868197
