20
Lattice="5.689946900086072 -0.10095288833389524 -0.04720800908691913 1.5322205663609079 5.147069381482084 0.8201656423110414 -0.092449346316246 -0.022275805426364977 8.350751886528272" Properties=species:S:1:pos:R:3:forces:R:3 structure_index=0 total_energy=-151.96835327148438 stress="0.029948484152555466 0.0046624536626040936 -0.0011609666980803013 0.004661640617996454 0.0307127945125103 0.0017888207221403718 -0.001164980698376894 0.0017896457575261593 0.026858152821660042" pbc="T T T"
O        5.63367233       4.31002559       6.68948607       0.00096604       0.00459540       0.00535029
Ti       3.82054176       0.91776095       2.58390662      -0.01216805      -0.00541323      -0.00000060
Na       1.36463851       3.24338185       5.20297573      -0.02406723       0.03176901      -0.02482510
Ti       2.70800282       4.40038337       1.85547578       0.01884246      -0.01290655       0.00339376
Ti       5.30617325       2.81846330       7.98490986       0.01416835      -0.00123264       0.00225714
Ti       5.33000345       0.63487994       5.72578654       0.00965247       0.00095472       0.00236905
Na       2.54864000       2.16722127       8.48226310       0.00744557       0.00653307      -0.00935774
V        2.49754675       0.36673005       6.52448643       0.00259515       0.00503856      -0.00466576
O        5.03779701       1.52170409       4.06010417      -0.00582522      -0.01390404      -0.00116351
O        2.60760792       4.87722635       6.04473113       0.00041234       0.00065762       0.00456929
O        4.81368391       1.64893335       1.21470013      -0.00968498       0.00850645       0.00453115
Na       4.10490411       3.52976768       4.89841002      -0.01353862      -0.02629557       0.01992215
O        1.90336624       0.78262235       1.92472090      -0.01125444       0.00075823      -0.00881955
O        2.70960331       3.03272900       3.08032453      -0.01103603      -0.00643516       0.01265359
O        5.75759967       4.33094759       3.44966266      -0.03103775      -0.00227046      -0.00661077
O        6.86651777       3.63398500       0.84353324       0.01982057       0.00092455       0.00443351
V        0.66200753       2.50872773       2.52932409      -0.00687344      -0.00487533      -0.00361949
O        0.86450195       1.66312010       7.04796350       0.01226604       0.01333757      -0.01163073
O        3.84734103       4.07752499       8.84912432       0.02011061       0.00461519       0.00240642
O        3.99680199       1.83994356       6.76183982       0.01920626      -0.00435748       0.00880709
