18
Lattice="6.412384869619333 0.22999879342856624 -1.0200199715066383 -1.8744631352543324 9.386268261774102 -0.14899504838091315 -0.16447994888326395 -0.014665854228207714 7.220983228602243" Properties=species:S:1:pos:R:3:forces:R:3 structure_index=0 total_energy=-107.37362670898438 stress="-0.012839313596487045 -0.0026762383058667183 -0.000544412643648684 -0.002675028517842293 -0.00821139570325613 -0.000589283590670675 -0.0005450366879813373 -0.0005908012972213328 -0.006744941230863333" pbc="T T T"
As       1.82895110       3.85948995       5.84397222       0.01249695       0.02731454       0.01029231
As       2.41550845       6.61350686       4.29564344       0.03156301       0.00416987       0.00498760
As       3.97951911       0.40814184       3.69619314       0.01642263      -0.00453258       0.01253667
O        3.09905294       3.60426382       4.55463951      -0.00482035      -0.00589734       0.00550938
O        3.09001158       4.04795002       0.03537259      -0.00465107       0.00457627       0.00565302
O        2.45988311       5.64894918       2.79287274       0.03687802       0.01084495       0.00826573
As       2.70929968       3.80212270       2.76578030      -0.00061798       0.01335144       0.00770998
As       5.81588935       0.67888882       1.06881452      -0.02658868       0.00454748      -0.01893115
O        1.50644621       5.65979462       5.50994184       0.03550601       0.02411294       0.00438106
O        3.75635896       8.81145628      -0.38027229      -0.03014255       0.00952315      -0.01300436
O        1.48779592       8.11543676       4.05694483       0.04003072      -0.00203315      -0.00231823
As       4.86559277       3.75854118       0.48891404      -0.02855873      -0.01623559      -0.00624621
O        2.51764973       9.37118855       1.83292769       0.00200069       0.01487875       0.00298285
O        4.08025017       7.05444659       4.80976225       0.00079286      -0.00863373       0.01427855
As      -1.72933704       8.46997179       6.40173484      -0.02255011      -0.01321191       0.00335842
O        4.90825442       1.98693041       0.13584431      -0.03370196      -0.00516403      -0.01686382
O        5.67177800       0.41316495       4.38394821      -0.00031471      -0.02640235      -0.01875710
O        4.46177658       3.71356829       2.28091724      -0.02374518      -0.03120944      -0.00383472
