8
Lattice="6.085951328277588 0.0 -0.0027346829883754253 0.009932179088032731 6.507130195418821 -3.764108657836914 0.0 0.0 7.514840126037598" Properties=species:S:1:pos:R:3 pbc="T T T"
Eu       2.06821540       0.55208553       6.97603077
Eu       2.07899209       3.84668837       5.06748766
Eu       5.11646425       1.65343305       1.36064838
Eu       5.12385918       4.95158966      -0.54342318
Eu       2.07672509       3.85370467       1.36162141
Li       2.07214886       0.58712567       3.21524482
Eu       5.11425700       1.65515571       5.06654765
Li       5.12047857       4.91941979       3.21271882
