8
Lattice="6.159749984741211 0.0 -0.0002646170323714614 0.030257682415357756 6.530140872086411 -3.7842323780059814 0.0 0.0 7.542499542236328" Properties=species:S:1:pos:R:3 pbc="T T T"
Eu       5.02737986       1.66818060      -0.22357755
Eu       5.04625857       4.93233674       1.66292977
Eu       1.95493420       2.73706687       1.71715103
Eu       1.96893585       6.02847394       3.55120402
Eu       1.96669380       6.09347792      -0.22458222
Eu       5.04130382       4.94943781      -2.11291763
Eu       1.94872982       2.74053040       5.38457757
Mg       5.02861119       1.67798795       3.55069901
