16
Lattice="3.860832452774048 0.0 -0.5447049736976624 -0.07391895659048857 3.8521327002747854 -0.5404843688011169 0.0 0.0 13.943925857543945" Properties=species:S:1:pos:R:3 pbc="T T T"
Eu       1.69094511       3.10779439       3.45790737
Eu       1.16975633       2.58131678      -0.17179481
O        2.55374210       0.05357589       9.59646722
O        1.50135426       0.95518671       2.15363148
Fe       0.13902363       1.52446493       6.44044600
Fe       3.41729954       0.93834226       1.79899159
Fe       2.87201255       0.37780719      11.85734711
O        2.81046135       2.28240849      11.43015412
Ti       2.22902710       3.65166343       7.28135450
Eu       0.65861186       2.05075036      10.11227228
O        3.39658984       2.87913168       1.61554759
O        0.91817935       0.35425408      11.97146128
O        0.24363100       3.59123920       7.16981839
O        2.21013951       1.65987850       7.12763653
O        3.13943320       0.65557216      -0.17832546
O        3.73090277       1.25690496       3.99642124
