20
Lattice="3.565338134765625 0.0 0.491472452878952 1.2258378118716353 7.312682441606321 3.182504415512085 0.0 0.0 11.564297676086426" Properties=species:S:1:pos:R:3 pbc="T T T"
Gd       2.98101594       1.46466152       1.79505450
O        3.56540717       5.47898400       8.63206865
O        0.55593366       0.34170666       5.28557411
Eu       3.16101573       4.42828486      12.02887903
Eu       1.73266868       0.15981569       9.84926063
O        2.84870867       5.36904859       2.66298450
H        3.69431989       3.81320956       6.33237071
O        3.93141115       6.75108888       5.91087561
O        2.01263164       1.76977769       8.07383842
Eu       0.96465954       4.21250192       3.34251536
Gd       1.95568595       6.00031405       6.85239823
O        1.37347825       6.24445848      11.59248053
Eu       3.64686329       3.08816526       9.08738279
Ni       1.66873245       5.93518426       9.63903643
O        1.62648573       3.98431671      10.11398243
O        1.09322639       3.71756436       5.96180615
O        3.35543487       1.29444437      11.09504476
Gd       2.28206636       1.58156217       5.83341603
O        1.24225382       2.84889193      12.89769642
O        2.75698871       2.57962529       3.87224701
