12
Lattice="4.040713787078857 0.0 0.0048832050524652 -2.0228331462292317 3.500970753031177 -0.0019248205935582519 0.0 0.0 10.21969223022461" Properties=species:S:1:pos:R:3 pbc="T T T"
Fe       2.32515327       2.56351438       6.60916767
Fe       2.32677607       0.22610029       9.95574973
Fe       2.32476913       0.22968338       7.51386188
Fe       0.30223389       1.40137587       5.75977665
Ge       0.30703342       1.39410149       0.44578930
Fe       2.32357178       2.55957753       1.45059432
Fe       2.32341260       2.56533444       3.99931530
Fe       0.30447495       1.39508769       8.20553304
Ge       2.32493530       0.22832159       2.35341457
Fe       0.30291696       1.39886229       3.14293851
Fe       2.32554601       2.56074340       9.10163068
Ge       2.32470957       0.23357092       5.06348744
