8
Lattice="4.8672236309763495 -0.022480651339684674 0.005677506312445808 0.011251127901053598 2.718032736156883 -1.132074265930419 -0.08290991455976852 -0.08220353284959002 7.346149552708889" Properties=species:S:1:pos:R:3:forces:R:3 structure_index=0 total_energy=-32.4939079284668 stress="0.003653887426480651 0.0012178163742646575 0.003728150390088558 0.0012176329037174582 0.0014249136438593268 -0.0015435595996677876 0.003728378564119339 -0.0015431175706908107 0.0004461545904632658" pbc="T T T"
F        4.67661575       0.74853191       4.29249419      -0.00699468      -0.00985222      -0.03830786
Li       4.91623152      -0.05442496       6.18163698       0.01985875      -0.01054760      -0.03433599
F        2.01440079      -0.04372745       6.15458966      -0.02544487       0.00760048       0.02133373
Li       2.58796212       1.87560738      -0.59962733      -0.04076661       0.01097990       0.02046875
Ag       4.79078044       1.30684139       1.83651069       0.00503781      -0.00875946      -0.02300563
Ag       2.28387540       0.52500619       3.73867842       0.01216321       0.01102512       0.03839789
F        4.52415938       1.87437163      -0.57737861       0.02693784      -0.01641734      -0.02679034
F        2.32125784       1.06708183       1.28837492       0.00920849       0.01597109       0.04223936
