11
Lattice="3.221598111776514 0.001570461937205675 -0.04170079887392581 -1.6087159905296513 2.774614820141687 0.30746805602664734 0.09032729913817739 -0.06813049713574612 40.36551339316043" Properties=species:S:1:pos:R:3:forces:R:3 structure_index=0 total_energy=-74.31907653808594 stress="-0.005834881216287613 3.110023726549116e-06 0.00026132684433832765 2.5459082735324046e-06 -0.006390891503542662 0.0017784640658646822 0.0002591281372588128 0.0017807456897571683 -0.016702134162187576" pbc="T T T"
Se       0.65695942       1.29344911      29.47984552       0.00100871       0.00198385      -0.00803912
Se       0.03251770       0.29209748       4.31806256      -0.00884598      -0.00037365      -0.03200686
Se       0.12464958       1.59913404      11.27591820       0.00489347       0.02906321      -0.02048489
W        1.70022631       2.27778302      35.68621503       0.00001553       0.00235886      -0.01222996
Mo      -0.97410014       2.38690660      27.95953034      -0.00150108      -0.00186411       0.01213565
S        0.08367935       1.94066565       8.02965466      -0.00446526      -0.02980295       0.03512860
Mo       0.02985654       0.55760218       1.92937921       0.00547161       0.00269051       0.01159084
Se       0.11077419       1.17685903      37.32447610       0.00137625      -0.00889505      -0.04664755
Se       0.06663749       1.52700488      33.89873781      -0.00086230       0.01209317       0.02070391
Mo       1.71317266       0.85491362       9.44968339      -0.00027415      -0.00376789       0.00948220
S        0.01284583       2.55952983       0.65701162       0.00318301      -0.00348579       0.03036729
