4
Lattice="4.139794783443768 0.0008950593594919213 -0.0007432407309973716 -0.0014702919084800742 5.553912310003832 -0.0005391024223326619 0.0008561394106110061 0.00019879497475095554 5.5544901827062905" Properties=species:S:1:pos:R:3:forces:R:3 structure_index=0 total_energy=-27.10173797607422 stress="0.025465747341513634 -0.0007365297060459852 -0.0005008199950680137 -0.0007365765632130206 0.05641397833824158 -0.00037807057378813624 -0.0005008263979107141 -0.00037807985791005194 0.058913763612508774" pbc="T T T"
Eu       3.44553761       1.09867334       1.45165668      -0.00342321       0.00007477      -0.00630887
Cd       1.37377218       1.09825215       4.23143405       0.00376265      -0.00048172      -0.00020610
Eu       3.44687248       3.87524663       4.21667405      -0.00555350       0.00078952       0.00113200
Pb       1.37275504       3.87543522       1.43510737       0.00521406      -0.00038257       0.00538297
