12
Lattice="5.623250484466553 0.0 0.0015120496973395348 -2.8168351977735995 4.865835789775443 -0.00029649067437276244 0.0 0.0 8.681859016418457" Properties=species:S:1:pos:R:3 pbc="T T T"
Eu       2.28276333       2.90061445       2.20249542
Eu      -0.53006376       4.51932760       6.54017264
Pt      -0.52624687       2.91647442       3.80627765
Pt       0.89488052       0.45932298       3.80476936
Eu       2.28414462       2.89921271       5.40880712
Pt       3.67796234       0.45761871       3.80452066
Pt       3.67665454       2.09622854       8.14941449
Eu      -0.52920127       4.52182972       1.06645114
Pt       0.89418966       2.09729465       8.14548561
Pt       2.28102416       4.50452768       8.14471025
Ge      -0.52587952       1.27754040       5.97317798
Ge      -0.52622057       1.27843069       1.63310701
