4
Lattice="4.235506664623564 0.0010748169295819799 -1.5135575821036569 -0.0013507720904001115 4.16093299877189 -0.0008419488695962492 0.5762858901407584 0.001957423288000981 8.29948065600576" Properties=species:S:1:pos:R:3:forces:R:3 structure_index=0 total_energy=-35.70827865600586 stress="0.03490481898188591 0.0002134719252353534 -0.032456174492836 0.0002135657414328307 -0.02477404847741127 0.0004848063108511269 -0.032456301152706146 0.00048475153744220734 -0.041397929191589355" pbc="T T T"
Eu       3.14603429       1.95571960       3.85697273       0.00419795      -0.00044162       0.01380891
Au       1.28570412       4.03539536       5.33541752       0.00712667       0.00149629       0.02027978
Eu       1.51645441       1.95489918      -0.70903034      -0.01398531      -0.00087701      -0.03299206
Eu       4.46034852       4.03645625       0.85851833       0.00266070      -0.00017766      -0.00109662
