20
Lattice="4.562671184539795 0.0 -0.04636165872216225 0.14768229735563657 6.758838061850832 -1.5555988550186157 0.0 0.0 6.8858561515808105" Properties=species:S:1:pos:R:3 pbc="T T T"
Co       3.17423141       5.86454386       1.21164811
Co       1.56832860       0.85527795       4.10186328
Co       3.13989120       2.80578076       5.13031429
Ti       3.75827946       0.03003918       5.05896909
Co       3.21569281       4.35993372       3.24658473
Co       3.94744238       3.44703564       0.90667497
Co       0.87859921       3.56172277       4.29653376
Co       0.78487331       1.71914251       6.42034378
Co       3.12399029       0.82054782       0.66370966
B        2.50806172       2.49957283      -0.01007669
Ti       1.67210835       5.87333873       4.75288466
C        0.12708628       1.89543213       4.68819602
Co       0.78081194       0.03793378       1.66130775
C        0.15867841       5.12184375       0.52848609
Ti       1.59470225       2.74558319       2.03818263
Co       3.86580937       1.80309559       2.93769627
C        2.36771220       0.78251060       2.38467322
Co       0.93054118       5.16494703       2.28165946
Co       3.93447136       5.12227714       5.62035339
Co       1.64841031       4.26188277      -0.20433610
