18
Lattice="4.601980629671333 -0.01604356536328309 -1.8065158371354215 -0.6276969009501975 5.557961951870538 -1.6076517255500733 -0.030120188300611302 -0.01964854176327941 8.409490718651705" Properties=species:S:1:pos:R:3:forces:R:3 structure_index=0 total_energy=-120.62797546386719 stress="0.033634454011917114 -0.000543182366527617 0.003693983191624284 -0.0005420306115411222 0.026614533737301826 0.004386299289762974 0.0036939356941729784 0.004385743290185928 0.027020763605833054" pbc="T T T"
Mn       3.71433030       0.69851899       2.63365575      -0.01139951       0.00066160      -0.00472181
F        2.84650732       3.99278985       3.58923205      -0.00262037       0.00798330       0.01687050
O        0.86902839       2.09575425      -0.98376888      -0.01059711      -0.01580344      -0.00617790
Mn       1.78756500       1.47986186       5.74535699       0.00102630      -0.00350785      -0.00466909
Mn       0.89993864       3.69261046       3.05962270      -0.00117548       0.00211868       0.00521075
O        3.08241760       1.41983590       4.31398220       0.00043537      -0.00745971      -0.00785121
Mn       4.06396212       3.00733709       4.66747873       0.00447707      -0.00579095      -0.00224540
Mn       2.53043957       3.42623918      -0.45944241      -0.00015046       0.03827594      -0.01674634
O        0.47533102       2.56585401       4.84932277       0.01075888       0.01425693       0.00229633
Mn       0.26073663       1.02457354       0.90958956      -0.00752975       0.00509429      -0.00695167
O        0.75883673      -0.01571032       5.16509827      -0.00159965       0.00156567      -0.02172789
F        1.92320247       4.37030418       1.16654763       0.02410636      -0.01089722       0.01540858
F        3.52530912       5.42921597      -0.71005991      -0.02294673       0.01673533      -0.00932485
O        4.21420593       2.69441320       0.13074169      -0.00646485       0.01195905       0.00810056
F        2.93033376       0.48552604       6.89393180       0.00262457      -0.01819501      -0.02104263
O        2.84747113       3.05174363       6.11841774       0.01435354      -0.01436642       0.00135976
F        2.11151488       1.49278582       1.77463108      -0.02734292      -0.00916404       0.01824205
F        0.38795770       4.69646958      -1.37220596       0.03404468      -0.01346645       0.03397028
