4
Lattice="5.8285182203824535 0.00040219889357663195 0.0011405446277705095 -0.0007031745555855179 5.824816783567181 0.0010523979394801027 -0.0006471714945516721 -0.000613957819023373 5.824962759614604" Properties=species:S:1:pos:R:3:forces:R:3 structure_index=0 total_energy=-32.566429138183594 stress="0.005604072939604521 -0.00019829001394100487 0.0003213730233255774 -0.00019826060452032834 0.0030407565645873547 0.0002956854004878551 0.0003213614400010556 0.0002956935786642134 0.0031390096992254257" pbc="T T T"
Eu       0.34053679       2.15338555       0.22436013       0.00021250       0.00038420      -0.00033712
Eu       3.25552533       5.06643407       0.22684732      -0.00021708       0.00010785      -0.00118316
Ba       0.34072863       5.06612467       3.13650533       0.00018444       0.00026086       0.00135093
Eu       3.25549082       2.15513891       3.13747947      -0.00017986      -0.00075291       0.00016935
