3
Lattice="4.196676472916369 -0.00016774158742997706 -1.3135161069817822 -0.40955447708951354 4.17794843656646 -1.3138227351874114 -0.0004757892670105046 -0.0005671427461973199 7.355788449135091" Properties=species:S:1:pos:R:3:forces:R:3 structure_index=0 total_energy=-22.45966339111328 stress="-0.05655064061284065 0.006924056448042393 0.007511440198868513 0.006924087181687355 -0.052917271852493286 0.008815924637019634 0.0075114755891263485 0.008815941400825977 -0.04066624492406845" pbc="T T T"
Eu       1.93691022       3.17205045       2.26190955      -0.00442685      -0.00671697      -0.01659861
Eu       0.67450478       1.77721631       5.58665523       0.00322423       0.00518432       0.01323494
Ca       3.60814736       0.38464676       0.24408501       0.00120263       0.00153265       0.00336367
