9
Lattice="3.892159844128018 6.962742216198918e-05 0.0001127047765247711 -0.00039540964338692695 8.88108229442454 -5.133286251670506 -0.0004331846749675925 0.0031465736538906085 10.259257873855464" Properties=species:S:1:pos:R:3:forces:R:3 structure_index=0 total_energy=-75.0860824584961 stress="-0.011150154285132885 -1.680757304711733e-05 2.7001495254808106e-05 -1.6819036318338476e-05 -0.004680984187871218 3.497438956401311e-05 2.6971900297212414e-05 3.4987853723578155e-05 -0.004029105883091688" pbc="T T T"
Eu       1.90976232       0.52153472       6.44551775       0.00006550      -0.03622385       0.02339229
Mg       1.90861955       3.86435983       7.89270638       0.00047453      -0.00066407       0.00110521
Eu       3.85552915       1.27130264      -0.62672968       0.00021920       0.03509072      -0.00695551
Eu       1.90967429       0.90414045       2.76310194       0.00005008      -0.00154888       0.00117027
Eu       1.90948660       4.28324940       1.25441778       0.00027535       0.03619429       0.01881065
Eu       3.85553495       3.65439174       4.77676204      -0.00001296      -0.01172286       0.03662214
Eu       1.90974826       6.78670082       5.72575255      -0.00010852       0.00057499      -0.04442361
Eu       3.85641397       6.66287925      -0.99010619      -0.00062301      -0.02259027      -0.02754342
Mg       3.85597753       6.82520730       2.76779935      -0.00034017       0.00088992      -0.00217801
