10
Lattice="5.064439296722412 0.0 0.03873392567038536 0.06191947878517524 6.063663009766736 -0.00015929924848023802 0.0 0.0 4.333585739135742" Properties=species:S:1:pos:R:3 pbc="T T T"
O        1.52259322       3.64904388       3.17089940
O        2.83365289       2.04111809       1.01720984
O        1.52960786       2.01361728       1.00565435
Sr       4.69777092       2.01767840       3.21006286
O        2.82954059       0.36536298       3.20855801
O        1.55962964       0.38308013       3.20069925
O        4.73745922       5.65895513       1.05679456
O        2.80173509       3.66937823       3.17971981
O        4.71598580       4.44798670       1.06531620
Sr       2.19210564       5.05351862       1.02030755
