10
Lattice="4.981838530955515 -0.006895675974539649 0.019287837959389105 0.052672837412230236 6.262371846111781 -0.0026248386184506496 -0.017768101760030814 -0.0015767588291438902 4.481109758361994" Properties=species:S:1:pos:R:3:forces:R:3 structure_index=0 total_energy=-53.485687255859375 stress="-0.004804165102541447 -0.001471766852773726 -0.001495153410360217 -0.0014719631290063262 -0.024583186954259872 -0.0018622376956045628 -0.0014951617922633886 -0.0018620298942551017 0.015042160637676716" pbc="T T T"
O        1.43970151       3.85004143       3.28033079       0.00400220       0.04519575       0.00894353
O        2.80194561       2.11805862       1.04304983      -0.00652995       0.02684426       0.00599037
O        1.47997951       2.05775130       1.03819246       0.00656239      -0.03224545       0.00577740
Sr       4.61080116       2.07529564       3.29572402      -0.00713702      -0.00002129      -0.00528286
O        2.80334582       0.29920757       3.29757967      -0.00686002      -0.03670059      -0.00658477
O        1.44827996       0.33705043       3.29249723       0.00247837      -0.03946435      -0.00750585
O        4.64268382       5.89582654       1.07312039       0.00695882      -0.00672672      -0.00345944
O        2.79494411       3.83402859       3.28479426      -0.00536349       0.03209656       0.00954443
O        4.64150491       4.53363005       1.07178825       0.00385501       0.01189973      -0.00682450
Sr       2.15150790       5.21175447       1.04634497       0.00203370      -0.00087787      -0.00059830
