16
Lattice="6.177371501922607 0.0 -0.1675111949443817 0.36273102780995026 4.943945683943845 1.5680500268936157 0.0 0.0 7.44504451751709" Properties=species:S:1:pos:R:3 pbc="T T T"
Li       0.90378837       1.17808558       2.86555159
Mn       3.97141385       1.30125601       2.47254556
Li       5.63034252       3.27870701       4.08371407
O        1.82081968       0.03223379       1.35011862
O        1.13350359       1.98662917       7.20806268
O        2.64126263       4.69100734       7.62547890
Cu       4.37477343       4.30421495       6.63611623
O        5.55089921       2.01147235       2.86514683
Si       2.49697173       3.73343571       3.98000276
Si       2.29073616       0.77796450       7.38147725
O        4.00899670       4.19404156       4.66470297
O        1.21881934       4.01445962       4.98397898
O        3.78306377       1.28986507       0.33690867
Cu       5.48029899       1.32438531       7.10025321
O        2.46658305       2.27233042       3.31979605
Ga       0.96195826       3.86990035       6.87462180
