16
Lattice="5.9215979294502485 0.13687954805293387 -0.3822094754653302 0.4013234866706559 5.047434663662549 1.5149763210448515 -0.26350749667381007 -0.005027352125698082 7.2698595444010845" Properties=species:S:1:pos:R:3:forces:R:3 structure_index=0 total_energy=-101.2812271118164 stress="0.04182494059205055 0.0035667275078594685 0.0011252410477027297 0.0035665221512317657 0.026554839685559273 0.0020452095195651054 0.0011247334768995643 0.002045190194621682 0.025940077379345894" pbc="T T T"
Li       0.85543880       1.23742200       2.85342714      -0.01350766      -0.00701993       0.03775129
Mn       3.75835702       1.31133803       2.34467810      -0.03584020       0.00565130      -0.02999946
Li       5.34195918       3.67501187       3.43972307      -0.01686518       0.01520474       0.00428966
O        1.55921839      -0.02957949       1.15750383      -0.00486070      -0.00038481      -0.01548506
O        0.94395105       1.95441873       6.74421296      -0.00751835      -0.02463806      -0.04753557
O        2.26094833       4.63075779       7.32687218       0.00830775      -0.01262376       0.00109380
Cu       4.11816139       4.37350624       6.52939432      -0.00156397      -0.01392624      -0.01731011
O        5.33391065       2.43144447       2.11337886      -0.01473033       0.00766069       0.03179717
Si       2.30161331       3.86124746       3.84309540      -0.00910547      -0.00072801      -0.01006667
Si       1.92812988       0.67646889       7.05075679       0.01369227      -0.01009895      -0.01339123
O        3.76557307       4.33378069       4.46919333      -0.00780863      -0.00037116      -0.00305906
O        1.00859546       4.21070721       4.81545449      -0.00204897       0.00243798      -0.01292980
O        3.72068579       1.04674099       0.16289383       0.01598895      -0.01516715      -0.00360131
Cu       5.14374142       2.13612318       7.43325583       0.06990430       0.06765462       0.09489979
O        2.30887117       2.34796606       3.31333030      -0.00933956       0.00624907       0.00106993
Ga       0.60158843       3.87777246       6.66390392       0.01529542      -0.01990025      -0.01752333
