11
Lattice="5.298423297805866 -0.04476088273821236 -2.581046468065389 -1.4058267250736731 5.1889256268998984 -2.4328010784475196 0.015708810181035853 0.05389576912235846 6.479605218318395" Properties=species:S:1:pos:R:3:forces:R:3 structure_index=0 total_energy=-93.41655731201172 stress="-0.03280017152428627 0.0068918513134121895 0.02841472439467907 0.006890735123306513 -0.014103855937719345 0.007770205847918987 0.028416557237505913 0.007771160453557968 0.009337049908936024" pbc="T T T"
O        1.81171953       0.52666028       4.39199483      -0.00560586      -0.02468768      -0.02633160
O        3.31415969       2.87843545       1.34319760       0.00060700      -0.00747275       0.00738993
O        0.67297064       2.74184442       2.50090835       0.01090897       0.01502797       0.01491839
Sr       0.27275804       2.48791155      -1.37976346      -0.00053807      -0.00913662       0.00646077
Eu       2.24808503       0.87444005       2.07338798      -0.02022344       0.02942756      -0.01596890
Eu       3.97810131       4.04830020      -0.64661081       0.01484449      -0.02792853       0.00103721
O       -0.81356873       4.44723307      -0.30395167      -0.00843117       0.02787951      -0.00675667
O        4.32631579       0.47902390       3.01976801       0.00270934       0.00304908       0.01753834
Eu       2.43706669       4.67442489      -3.90117193      -0.01930892      -0.02454305      -0.00806955
O        1.87172679       4.37847408      -1.70027572       0.00887206      -0.01046521       0.01651600
O        0.10207180       2.07375055       1.36296311       0.01616557       0.02885010      -0.00673418
