12
Lattice="5.623250484466553 0.0 0.0015120496973395348 -2.8168351977735995 4.865835789775443 -0.00029649067437276244 0.0 0.0 8.681859016418457" Properties=species:S:1:pos:R:3 pbc="T T T"
Eu       2.28251684       2.90065625       2.20287863
Eu      -0.53007567       4.51900103       6.53998385
Pt      -0.52563194       2.93440576       3.80631590
Pt       0.90994857       0.45084073       3.80481744
Eu       2.28398935       2.89931169       5.40841212
Pt       3.66249350       0.44818492       3.80470323
Pt       3.66136345       2.10493703       8.14932686
Eu      -0.52900866       4.52182473       1.06620836
Pt       0.90989132       2.10681988       8.14557960
Pt       2.28051646       4.48639336       8.14489798
Ge      -0.52584060       1.27766873       5.97304658
Ge      -0.52615544       1.27837843       1.63321877
