9
Lattice="3.925274133682251 0.0 -0.8593436479568481 0.006342582389718865 5.477091931525246 -0.27483856678009033 0.0 0.0 9.01230239868164" Properties=species:S:1:pos:R:3 pbc="T T T"
Cd       1.46061968       2.61714328      -0.31554758
Cd       0.73157253       0.46292747       5.64833644
Zr       2.23740126       1.48877420       3.16050758
Ga       3.76113843       1.37550837       0.82331635
Zr       0.05749336       4.11284905       2.48382728
Sc       3.19097962       5.24048963       7.11304536
Cd       2.91862951       2.45142723       6.09264819
Ga       2.48367234       4.21929953       4.06201424
Ga       1.66214212       5.30140774       0.43825768
