9
Lattice="3.870393103514157 -0.02345258097342823 -0.8663105368606628 -0.02073043035048862 5.5728559983732024 -0.2508478581313785 -0.031897869945193946 0.035867642894735624 8.939665364144144" Properties=species:S:1:pos:R:3:forces:R:3 structure_index=0 total_energy=-37.329437255859375 stress="-0.0015773653285577893 -0.0013787526404485106 0.0025036276783794165 -0.0013787341304123402 -0.0006703863036818802 -0.00413412693887949 0.0025039080064743757 -0.004133495036512613 0.008614558726549149" pbc="T T T"
Cd       1.43153844       2.80696575      -0.27114153       0.00424617       0.03464502       0.01006725
Cd       0.68327718       0.37588036       5.52667012       0.00101511      -0.01008108       0.00440999
Zr       2.19076290       1.48490229       3.15052823      -0.00067257       0.00610727      -0.00012390
Ga       3.69823028       1.40516684       0.80972005      -0.00208196       0.01162480      -0.01037262
Zr       0.02902525       4.18395703       2.49348309      -0.00415182       0.00595895      -0.01764695
Sc       3.08337344       5.30767574       7.03101379      -0.00229998      -0.04857086      -0.00512546
Cd       2.83567433       2.48603348       6.01469393       0.00627147      -0.02485748       0.02749003
Ga       2.40772095       4.29457032       4.03627359      -0.00105921      -0.00442004      -0.00123438
Ga       1.62739565       5.43007876       0.52038824      -0.00126716       0.02959342      -0.00746404
