4
Lattice="2.670428145438654 0.0014337466993330499 0.42126858217462526 1.3008142251774364 2.3319288598658394 0.4212623297881413 -0.005241514293629952 -0.0031627403361689775 8.705119941996127" Properties=species:S:1:pos:R:3:forces:R:3 structure_index=0 total_energy=-27.16842269897461 stress="-0.034782975912094116 0.004340847488492727 0.003886841470375657 0.0043411534279584885 -0.039937667548656464 0.0021682181395590305 0.003887766506522894 0.002168496372178197 -0.06485062837600708" pbc="T T T"
Cu       1.20832833       0.29238516       2.73906268       0.00007654       0.00002756       0.00083765
Rh       2.86801932       1.26746118       0.89052704      -0.00714654      -0.00434295       0.04883923
Fe       1.84609320       2.23413903       7.37297239       0.00064663       0.00043535      -0.00731310
Rh       2.19678575       0.87229617       5.15676680       0.00642339       0.00388004      -0.04236379
