9
Lattice="4.842357635498047 0.0 -0.0008839875808916986 5.156235920715379e-05 4.848612785065186 -0.0013457953464239836 0.0 0.0 13.296868324279785" Properties=species:S:1:pos:R:3 pbc="T T T"
K        3.32940083       4.55863612       0.26383458
Eu       0.90697215       4.56227058       3.81480896
O        3.32812080       4.56139000       4.27037688
Sb       0.90711015       2.13653754       6.23233268
Eu       3.32904125       4.56278558       6.72568235
K        0.90953472       2.13900055      10.33522571
Sb       0.90663160       2.13529123       1.55123176
Sb       3.32837884       4.56229833      10.00120510
Eu       3.32838567       2.13726250       3.81583534
