16
Lattice="6.488311290740967 0.0 2.679917097091675 1.9125368509170912 7.948603648736608 1.954172968864441 0.0 0.0 9.046907424926758" Properties=species:S:1:pos:R:3 pbc="T T T"
Eu       4.76367873       6.29839111      11.00869399
Eu       2.50855329       1.83251485       4.25829427
P        0.08431403       0.33390069       3.68545405
Eu       2.04772200       7.57222787       8.43003343
Eu       7.46733826       5.01723692       4.54227923
Eu       5.11106736       2.81326205       6.76193672
Eu       6.05952510       6.79609607       7.73733179
Eu       3.80914247       2.32659176      10.03118826
Eu       6.52255285       1.04279900       3.55355027
Eu       3.46651737       5.80517090       5.24529560
P        6.00098501       7.59533666       4.52583968
P        2.56573837       1.02715736       7.46823337
P        1.03943896       4.30827154       4.66294435
Eu       1.10498150       3.61860651       7.45352512
P        3.55270175       4.99968360       8.44540775
P        5.02641684       3.61937331       3.54886568
