8
Lattice="6.627504348754883 0.0 3.8332149982452393 2.2062606314216286 6.246561152921177 3.8371589183807373 0.0 0.0 7.65722131729126" Properties=species:S:1:pos:R:3 pbc="T T T"
Eu       4.31998215       0.03279219       5.21499641
Eu       5.42497625       3.15454723      10.96406823
Eu       1.00838060       0.03360546       3.30118208
Eu       4.32145764       0.03129143       9.04674982
Eu       2.11083904       3.15430680       9.04162310
Eu       1.00861252       0.03300323       7.12945143
Eu       2.10973673       3.15375934       5.22461383
Y        5.41899854       3.15433874       7.12746393
