4
Lattice="3.697400328714071 -0.00031871287312133664 -3.4877326303940145e-05 0.0002639407046078012 3.697213949942179 0.0002795756313400841 3.074631589856691e-05 -0.0002470238866677392 3.365956380607908" Properties=species:S:1:pos:R:3:forces:R:3 structure_index=0 total_energy=-29.756851196289062 stress="-0.03328600898385048 -0.0009044160251505673 -2.6870107831200585e-05 -0.0009046576451510191 -0.03712797164916992 0.00017474750347901136 -2.6578221877571195e-05 0.00017557018145453185 0.006537497043609619" pbc="T T T"
Fe       1.35840458       3.37544466       1.75894544       0.00027971       0.00098729      -0.00017889
Fe       3.20676950       1.52691462       1.75863602       0.00054882       0.00051155       0.00018647
Ni       3.20740605       3.37604763       0.07589604      -0.00152185      -0.00166637      -0.00011959
Co       1.35809992       1.52718411       0.07572081       0.00069335       0.00016756       0.00011199
