10
Lattice="4.86663293838501 0.0 -1.2520853281021118 -0.32235421998738895 4.854441302894751 -1.2574620246887207 0.0 0.0 10.085884094238281" Properties=species:S:1:pos:R:3 pbc="T T T"
H        3.28244736       2.42176544       1.10309865
Gd       2.05209783       3.69955545       6.37397994
Gd       3.85495332       3.02750595       3.29530877
Gd       1.58342050       0.60065230       4.55223934
Gd       3.06639498       4.78154721       0.22085541
Gd       4.64395505       1.26852597       6.37147282
Hg       2.67545602       1.76740895       8.79640002
Gd       0.79302370       2.35228405       1.47396001
Hg       0.16918328       4.28598536      -0.95486758
H        4.42560739       3.62932016       5.48160999
