10
Lattice="4.6862913596503075 -0.0037727400186422858 2.4752438000362544 1.6921344074119549 4.369675051653254 2.4771734490230863 -0.032488157972262344 -0.024859671713888837 5.735526844099438" Properties=species:S:1:pos:R:3:forces:R:3 structure_index=0 total_energy=-83.88595581054688 stress="0.028907835483551025 0.0005093460786156356 -0.0003953582199756056 0.0005085394950583577 0.03006894886493683 -0.0009109394741244614 -0.0003964704810641706 -0.0009085676283575594 0.030451910570263863" pbc="T T T"
Mn       2.14761059       1.49451906       4.62994549      -0.00011064      -0.00060954      -0.00026003
Gd       3.48384511       2.40757481       7.77656444       0.00043736       0.00423776      -0.00859648
O        4.09176601       1.83120291       4.33725103       0.00900951      -0.00054583      -0.01228727
Mn       5.22710627       3.60388617       4.47519500      -0.01185808      -0.01298123       0.03728971
O        2.15464276       0.57666585       2.85909680      -0.00277951       0.00601254      -0.01599506
Fe       0.16557496       0.13758973       2.70610895      -0.00593341      -0.00223140       0.01839757
O        4.98358123       0.86574994       7.12370780      -0.01500964       0.02787954      -0.00339532
O        1.93528775       2.67833978       6.16947094       0.02720241      -0.00332206       0.00690275
O        2.83629119      -0.00647358       5.67247672      -0.00917009      -0.02676073      -0.01481169
O        1.81784484       3.18657446       3.62629944       0.00821183       0.00832133      -0.00724417
