9
Lattice="4.338528633117676 0.0 0.005536363925784826 -0.00463989582060202 4.350374131645521 -0.012409411370754242 0.0 0.0 10.144830703735352" Properties=species:S:1:pos:R:3 pbc="T T T"
Cu       0.26286827       1.55490967       6.36599079
Sb       0.23387361       3.73279154       8.07392415
Tm       2.41263584       1.55617287       8.74846175
Cu       2.40438795       3.72664037       6.36393635
Sb       2.39428784       3.73401700       1.09114240
Tm       2.40554403       1.56132248       3.71009512
Sb       0.23327482       3.73201415       4.73650733
Sb       0.23047642       1.55939742       1.11352552
Fe       0.23119944       3.73709207       2.35892431
