9
Lattice="4.256518867854309 0.0023266064162584185 0.006765388285757699 -0.002229479535777513 4.254943077653382 -0.007132735743024717 0.002482780234517662 0.013181715063866176 10.451282907427416" Properties=species:S:1:pos:R:3:forces:R:3 structure_index=0 total_energy=-44.97586441040039 stress="-0.029430001974105835 1.2360550272205728e-06 0.0001274177193408832 1.6577957921981579e-06 -0.03004598431289196 0.0001945281110238284 0.00012789385800715536 0.0001942813687492162 -0.024206599220633507" pbc="T T T"
Cu       0.27264561       1.53339671       6.57722560       0.02393149       0.00082942       0.02531584
Sb       0.23412845       3.66110608       8.31623484      -0.00704129       0.00296247       0.01362195
Tm       2.36404554       1.53571767       9.05714867       0.00174457       0.00060896       0.00256319
Cu       2.35621971       3.65186627       6.57748058      -0.00762355      -0.00542904       0.02425162
Sb       2.35731693       3.65532601       1.11594408      -0.00016166      -0.00210538      -0.00026909
Tm       2.35867496       1.52974222       3.67503748      -0.00583757       0.00354818       0.00251990
Sb       0.22760489       3.65879300       4.93712804      -0.00725467       0.00059621      -0.03060213
Sb       0.23140001       1.52683753       1.11369098      -0.00207430      -0.00090674       0.00684538
Fe       0.22592354       3.65667085       2.51332554       0.00431703      -0.00010421      -0.04424673
