20
Lattice="5.3655794534921215 0.05146337320451686 -0.5700563545580508 0.8302674875574556 5.2191106496590125 -0.20511878740194503 -0.13849048490522828 -0.13543458688496962 8.88473040262096" Properties=species:S:1:pos:R:3:forces:R:3 structure_index=0 total_energy=-145.42662048339844 stress="-0.0029353874269872904 -0.0004872138670179993 -0.0008992695366032422 -0.0004870483244303614 -0.0017589546041563153 -0.0010824224445968866 -0.0009013124508783221 -0.001084808143787086 -0.0008657395956106484" pbc="T T T"
Cu       4.41660350       4.96891923       7.14741029      -0.00918101       0.00597879      -0.00376685
Ca       5.39279942       1.76907938       2.94315068       0.00349549       0.00531639      -0.00236885
Mn       0.81690124       0.98384518       6.63711582      -0.00301380       0.00293741       0.00172365
Mn       2.71664779       3.32816553       2.20087498       0.00064649      -0.00242752       0.00281978
O        1.87785515       1.78771605       4.87396081       0.00166816       0.00849514      -0.00193751
O        2.11117341       5.07005678       2.73895390      -0.00202101      -0.00096452       0.00678214
Mn       4.52922397       2.37580661      -0.18031937       0.00183981      -0.00545987       0.00082810
O        5.16496276       2.97751381       6.78056378      -0.02152734       0.02321739      -0.00432861
Mn       2.69039289       0.12826218       4.28873907       0.00456768       0.00634906      -0.00843465
Mn       1.87189195       0.80804584       0.88756642       0.00474983      -0.00308530      -0.00345669
O        2.57009902       1.67293116       7.71058742       0.02220227      -0.04600313      -0.00510425
Mn       1.65675017       3.53239569       7.99876421       0.00032902      -0.00432810      -0.00269056
O        0.06894622       0.22315640       8.58591312      -0.00198664       0.02624407       0.00592646
Mn       3.54016899       2.62863934       5.58419829      -0.00388619      -0.00032367       0.00085434
O        4.36777474       0.95113752       4.94988464       0.00087219       0.00078027      -0.00045494
O        1.04131428       2.52509281       1.41004903       0.00580716       0.00461950      -0.00928667
O        4.09855515       3.58820124       3.58627786       0.00313264       0.00271553      -0.00257653
O        3.36980813       4.21978372       0.30494625       0.00889903      -0.00675607       0.01370044
O        3.51515164       1.64500977       1.63974552      -0.00187406      -0.01035890       0.01121631
O        2.80402382       4.36768208       6.14162922      -0.01472019      -0.00694701       0.00055513
