10
Lattice="3.826911449432373 0.0 -0.005111929029226303 -0.0019775109790035397 5.34318029049472 -0.04632088914513588 0.0 0.0 5.339346885681152" Properties=species:S:1:pos:R:3 pbc="T T T"
Mn       3.16763914       0.91033656       3.10187060
Mn       3.17306625       3.62678383       0.39419575
Mn       1.25767289       4.85487302       1.80638164
Mn       1.25616654       5.09145117       4.55158136
C        1.25977433       3.62517742       0.38771893
V        1.26133089       2.09763353       1.60264743
Ge       3.17503414       3.59888799       3.06242014
Mn       1.25913554       2.33888217       4.35285884
C        1.25765008       0.91070663       3.12083405
Si       3.17224390       0.91877154       0.40127549
