5
Lattice="4.92960169090001 0.07071667798612934 -0.034334500125148715 0.08305763362177254 4.936684470217239 -0.811120766199191 -0.03133513707681471 -0.7779467241082667 4.942216082659235" Properties=species:S:1:pos:R:3:forces:R:3 structure_index=0 total_energy=-38.562103271484375 stress="0.04145025461912155 0.027979101985692978 0.01131109893321991 0.027979176491498947 0.012821569107472897 -0.04668251425027847 0.011310729198157787 -0.04668259993195534 0.016613611951470375" pbc="T T T"
Ge       4.81936492       2.91252197       0.15546676       0.00291713       0.00176953       0.00501600
Gd       2.33986258       2.48603417       2.64515779      -0.00215499      -0.00662822       0.00815400
Ge       4.76156773       0.05322114       3.03265496       0.00232790      -0.00289422      -0.00099000
Ge       2.30855169       0.41302639       0.57349139      -0.00158030       0.01028544      -0.01070690
Nb       4.77315945       0.44435989       0.56207971      -0.00150971      -0.00253246      -0.00147304
