12
Lattice="4.516852855682373 0.0 1.350356101989746 2.060863052794502 4.019025704191724 1.3529138565063477 0.0 0.0 8.263068199157715" Properties=species:S:1:pos:R:3 pbc="T T T"
Fe       2.93852189       1.07700561       4.32347358
Fe       1.10455408       1.33393212       6.37163220
Fe       4.38408066       3.33855379       3.61380780
Fe       4.39213208       3.34668492       7.72258408
Fe       3.36089527       1.33350045       7.04683861
Ta       1.72175494       3.09218831       8.42630574
Co       5.00413674       2.33749198       5.66081981
Co       1.71225402       0.32606876       8.45045421
Fe       2.12746710       3.33948421       2.94100282
Fe       1.09653665       1.32722369       2.26066332
Mo       3.73363844       1.56143475       1.67088040
Mo       2.56608962       3.60816425       5.59201604
