8
Lattice="4.167097568511963 0.0 0.010828642174601555 -2.0528944958584825 6.454319925175748 0.02576223574578762 0.0 0.0 9.673802375793457" Properties=species:S:1:pos:R:3 pbc="T T T"
Eu       0.70693963       0.03362977       5.11131489
Eu       0.72275246       3.79494430       3.87319233
Eu       0.72191327       3.79587606       0.29177493
Eu       2.79595965       0.91642719       2.06795401
Eu       0.70741696       0.03551581       8.69239771
Eu       2.80024514       2.91529860       6.92715233
Pt       0.73163426       5.10061329       6.92340810
Pt      -1.35546864       5.18282911       2.08697162
