7
Lattice="4.831066608428955 0.0 -1.669981598854065 -2.358460735727505 4.209930366445691 -1.658891201019287 0.0 0.0 5.0887861251831055" Properties=species:S:1:pos:R:3 pbc="T T T"
O       -0.74606819       2.55775151       2.16493329
Eu       2.84882828       0.45564680      -0.38232599
Eu       1.67629101       2.56170639       1.33509619
O        1.66684798       2.56380500      -1.20983417
Eu      -0.73789786       2.55746405      -0.37535654
O        0.43763721       0.45235090       0.45073538
O        2.84749492       0.45798819       2.16513335
