15
Lattice="3.63842511177063 0.0 0.0034757868852466345 0.029103890967572394 8.158629005531525 -0.01269850879907608 0.0 0.0 8.161490440368652" Properties=species:S:1:pos:R:3 pbc="T T T"
O        2.44593279       0.22797380       6.94156657
Eu       0.66363005       2.06980749       2.96728696
Eu       2.05170113       2.55438089       6.83059460
O        2.46739371       2.64767220       4.51293781
Eu       2.06461187       6.36344584       2.49272412
O        0.28906186       6.50585658       0.68846164
Eu       0.67987796       6.83550435       6.35527183
Fe       3.21731674       4.45300574       4.66466463
Fe       3.19281073       0.37411093       0.58836447
O        0.29343450       4.55335252       2.62962062
O        2.45527247       0.52305089       2.39999734
O        0.29429375       4.35010201       6.68987380
O        0.27568587       2.39838882       0.47382079
Fe       0.25983203       4.45196549       0.58147765
O        2.47901816       6.26137953       4.80644656
