15
Lattice="2.9724907875061035 0.0 -0.3950347602367401 -0.1423089989624526 5.799734626865269 -0.5363062024116516 0.0 0.0 10.265924453735352" Properties=species:S:1:pos:R:3 pbc="T T T"
O        1.41447833       0.29894852       7.94378106
Cr       0.29759473       4.67184267       1.28920422
Li       0.80888017       0.53469809       4.28869071
Cr       0.10101339       0.10105590       9.53405784
Fe      -0.05864618       3.26134235       8.74738310
Fe       1.13229105       4.19080276       6.67376553
O        1.90271538       3.61483433       1.89071463
O        1.63631487       5.72214771       0.08778686
O        0.22550170       2.05220226       0.44115677
Li       2.82381820       1.19177576       6.60768193
Al       1.86146990       1.77601718       1.26455785
Cr       1.88334158       3.15791053       3.89224084
O        2.14063370       1.25479162       2.99470977
O        0.69582285       4.57603680       4.71973415
F        1.28068410       1.98581989       5.60203385
