12
Lattice="3.500917434692383 0.0 0.02222527004778385 0.02631629333872491 5.83787517930596 0.051691047847270966 0.0 0.0 6.893433094024658" Properties=species:S:1:pos:R:3 pbc="T T T"
Mn       1.25757157       5.69062670       5.68994252
Mn       3.00024342       3.80016876       4.90942468
Mn       1.24059161       2.76706014       3.04005244
P        1.25646107       5.01340780       3.54708007
Mn       2.99139082       1.56194294       6.48178827
Mn       1.24793331       3.45149409       0.36688649
Mn       2.98573950       0.88209943       3.81462917
Mn       1.23403464       0.53263805       1.41613448
Mn       3.00563512       4.48310716       2.24445496
P        1.24128424       2.09562632       5.17668889
P        3.00773935       5.15422415       0.10798692
P        2.98973478       2.23620449       1.73381285
