11
Lattice="6.293278217315674 0.0 0.19664837419986725 -0.24130145246416057 6.286246363737672 -0.28559067845344543 0.0 0.0 6.206721305847168" Properties=species:S:1:pos:R:3 pbc="T T T"
Ge       2.54580726       0.89750833       3.46874180
Sm       5.96726612       5.66280166       2.85872931
Sm       1.40425817       0.97731456       6.19082615
Sm       4.32789820       2.50864650       1.56479824
Sm       2.86041949       4.27246388       4.53905606
Ag       3.02410198       5.49157644       1.57411281
Ge       4.77114383       6.06158068      -0.06128025
Ag       4.58187067       1.66119106       4.75570262
Ag       6.07257869       3.98634462       5.51075159
Ge       1.42265110       3.73018629       1.04607331
Ag       0.57995488       2.49658393       3.10856686
