11
Lattice="7.01325159450718 -0.06331926048103288 -0.023233706271047413 -0.32087196899950576 6.181044825194089 -0.32736789448608655 -0.20785924204327091 -0.062310731852003504 5.918741536654635" Properties=species:S:1:pos:R:3:forces:R:3 structure_index=0 total_energy=-49.00798797607422 stress="-0.00024700385984033346 0.0014193177921697497 0.0003900749725289643 0.0014194808900356293 0.009116842411458492 8.781158248893917e-05 0.00039029799518175423 8.805845573078841e-05 0.006771674379706383" pbc="T T T"
Ge       2.49249287       0.92296278       3.26827502      -0.01326267       0.00782583       0.01305871
Sm       6.58146393       5.36377429       2.50602518      -0.00582717      -0.00716261       0.01746316
Sm       1.19633211       0.85474539       5.96824262       0.00086939      -0.02058169       0.02658815
Sm       4.60715383       2.41855774       1.19969503      -0.00512115       0.02921242      -0.03466131
Sm       2.87812686       4.11505551       4.13971969      -0.01111533       0.00137174      -0.00847413
Ag       3.51370945       5.57311273       1.35687243       0.02164192       0.03915387       0.02438138
Ge       5.36881283       5.82073793      -0.37752822       0.00274079      -0.02952334      -0.00270239
Ag       4.95713443       1.50532334       4.15137951      -0.00737729      -0.02309363      -0.03411767
Ag       6.62207089       3.65959760       5.21339293       0.01753661      -0.02653489       0.01158017
Ge       1.79199141       3.73503701       1.02599150       0.01077440       0.03313254       0.00654280
Ag       0.35952677       2.40124378       2.86394277      -0.01085935      -0.00380019      -0.01965891
