20
Lattice="4.562671184539795 0.0 -0.04636165872216225 0.14768229735563657 6.758838061850832 -1.5555988550186157 0.0 0.0 6.8858561515808105" Properties=species:S:1:pos:R:3 pbc="T T T"
Co       3.18095872       5.87560099       1.20803975
Co       1.56346617       0.86485525       4.11190349
Co       3.14740652       2.79036308       5.13579326
Ti       3.76604793       0.03007578       5.07220882
Co       3.22656187       4.35990041       3.24599602
Co       3.95680087       3.45108669       0.90791468
Co       0.88031681       3.54865168       4.30114968
Co       0.78467374       1.72270239       6.40589703
Co       3.12047160       0.81823072       0.66625651
B        2.50637151       2.50040956      -0.00922094
Ti       1.66514092       5.88071528       4.74146773
C        0.11265565       1.89312689       4.69171028
Co       0.78539861       0.03068490       1.66186258
C        0.15588605       5.12209795       0.53195865
Ti       1.59458334       2.73333267       2.02780578
Co       3.86887194       1.80168112       2.94848446
C        2.35838568       0.79667751       2.37181004
Co       0.92941507       5.16089601       2.26951198
Co       3.93521185       5.12367876       5.62421471
Co       1.64109718       4.26767410      -0.19909615
