13
Lattice="4.534628868103027 0.0 1.8260383605957031 2.2636273263460254 6.107755454533109 0.9136373996734619 0.0 0.0 6.565486907958984" Properties=species:S:1:pos:R:3 pbc="T T T"
Tb       1.42568665       0.81940423       1.38815291
Dy       2.82883617       4.60572833       4.45157614
Fe       2.16599180       2.81460618       6.10618571
Fe       5.14568346       2.91695087       5.23495603
Fe       6.39234663       5.66767296       8.69084288
Fe       5.44633277       5.55184491       4.48904692
Fe       4.21224761       2.22207642       7.56816382
Fe       3.22432205       1.99921456       3.46796959
Fe       4.46934366       4.74251777       6.92721055
Fe       2.54555241       3.81085268       1.77680919
Fe       3.63957261       0.87922974       5.62667348
Fe       4.87783809       3.81223693       2.71637399
Fe       1.43652871       0.87594277       4.74225221
