5
Lattice="6.0126543295424835 0.013216143764998283 -0.04154220536654311 -0.04623258093704823 6.012616715838789 -0.05180738336897256 0.011814176680938022 0.014958589520932436 6.012892666325411" Properties=species:S:1:pos:R:3:forces:R:3 structure_index=0 total_energy=-33.1500129699707 stress="-0.0033492918591946363 -0.01905858889222145 -0.016913030296564102 -0.0190585944801569 -0.003234884701669216 -0.02135380543768406 -0.016913097351789474 -0.021353811025619507 -0.0026964659336954355" pbc="T T T"
Eu       5.61784949       0.56539637       2.67039771       0.00021780      -0.00033382       0.00198771
Eu       5.60083405       3.57775950       5.65191528       0.00015014      -0.00100047      -0.00039956
Zn       5.62576484       0.57076896       5.67733394      -0.00247344       0.00165139      -0.00153970
Na       2.58834019       3.56526770       2.66596464       0.00008181      -0.00015254      -0.00008305
Eu       2.61848883       0.56585166       5.69755821       0.00202368      -0.00016455       0.00003462
