8
Lattice="4.58693265914917 0.0 0.05766943469643593 0.011577780289767654 2.8259865108067306 -1.1447887420654297 0.0 0.0 7.634706974029541" Properties=species:S:1:pos:R:3 pbc="T T T"
F        4.47314801       0.85479652       4.48581671
Li       4.58638146       0.00012869       6.39606982
F        2.11816958       0.06841184       6.48296761
Li       2.22596133       1.97255513      -0.50124472
Ag       4.50312091       1.35277830       1.82979144
Ag       2.18473491       0.66849162       4.02440247
F        4.46499890       1.94134133      -0.58620878
F        2.21362635       1.16356884       1.45213016
