8
Lattice="6.730419783336655 -0.0009716534956183653 3.8894741094243894 2.2402952676425825 6.3457247340810214 3.8922821581256786 -0.002973737158624572 -0.003571363929290623 7.7747458812851695" Properties=species:S:1:pos:R:3:forces:R:3 structure_index=0 total_energy=-77.94886779785156 stress="0.0017336359014734626 -0.0008631680975668132 -0.0001051314320648089 -0.0008631263044662774 0.0020039405208081007 0.0009087111102417111 -0.00010513446613913402 0.0009087137877941132 0.003150091040879488" pbc="T T T"
Eu       4.38600892       0.03153059       5.29333754       0.00177419      -0.00383420       0.00168251
Eu       5.50663372       3.20092681      11.12892169      -0.00418972       0.00168660      -0.00359299
Eu       1.02303152       0.03267542       3.35145184      -0.00261259       0.00085420      -0.00179160
Eu       4.38598645       0.02807125       9.18397405       0.00073595       0.00047941      -0.00296952
Eu       2.14097758       3.20116466       9.17794146       0.00091581       0.00201774       0.01035257
Eu       1.02170959       0.03041774       7.23837881      -0.00194601      -0.00569917       0.00052215
Eu       2.14147478       3.20235370       5.30272704      -0.00148438       0.00397924      -0.01212773
Y        5.50179304       3.20252904       7.23309823       0.00680675       0.00051619       0.00792461
