12
Lattice="3.862976972541069 0.0025435374722703407 -0.0011247800545245306 -1.9347097726154536 6.5169926045374345 0.4674672080090727 1.3573456738650331e-05 0.013750874411132997 6.31789093166787" Properties=species:S:1:pos:R:3:forces:R:3 sample_seed=87000 sample_index_within_seed=0 benchmark_method=C0 dft_verified=F structure_index=0 total_energy=-104.13912200927734 stress="-0.009491810575127602 0.0022634356282651424 -0.0007454733131453395 0.0022634356282651424 -0.0038475848268717527 0.002412073779851198 -0.0007454733131453395 0.002412073779851198 -0.0041970256716012955" pbc="T T T"
Eu      -0.95101434       4.60871451       2.91630803       0.00185272       0.01515758       0.01463407
Eu       0.98180279       2.70421021       0.29296549       0.00000707       0.01840753       0.01164000
Eu      -0.95226441       5.99600057       5.92066482       0.00236554      -0.03145445      -0.00046607
Fe       2.91338951       1.75679800       4.17814757      -0.00068637       0.02613033       0.02318814
O        0.98209714       1.68792723       4.39942571      -0.00087120      -0.00434797      -0.04477376
O        2.91158811       2.37968261       2.21703329       0.00439955      -0.00108352      -0.01210710
O        0.98225516       6.14493804       3.99549555      -0.00546115      -0.01549689      -0.01245421
O        2.91427114       0.99185558       6.05668090      -0.00165228      -0.01863656      -0.01127775
O       -0.95064923       3.69312668       5.15310281       0.00119062      -0.01372708      -0.01139371
Fe       2.91458242       0.42776022       1.66687917      -0.00140265      -0.00643599      -0.00152081
O        0.98314835       0.28642266       1.41923485      -0.00135923       0.02441224       0.02351975
O        0.98015940       4.81632862       1.34976247       0.00161770       0.00707491       0.02101145
10
Lattice="3.790687491141917 0.003994650438201182 -0.0008265883489303392 -1.9017603192512946 6.235339564272837 -1.8419215456880615 0.001697240843325905 0.05470422541008227 6.179469939592913" Properties=species:S:1:pos:R:3:forces:R:3 sample_seed=87001 sample_index_within_seed=0 benchmark_method=C0 dft_verified=F structure_index=0 total_energy=-96.44115447998047 stress="0.023846661671996117 2.5473374989815056e-05 0.0001116069543058984 2.5473374989815056e-05 0.002360320882871747 0.007291439920663834 0.0001116069543058984 0.007291439920663834 0.03399857506155968" pbc="T T T"
N        0.35132248       2.55915078       1.16215829      -0.00012418      -0.00250160       0.02723098
C        2.24894322       0.62000674       4.29837216      -0.00031889      -0.00201791       0.00156639
Eu       0.35102389       3.17325984       4.90755585       0.00071863       0.02522069      -0.00866876
Eu       2.24492290       4.30280387       1.84342345      -0.00151647      -0.02727850       0.00855084
Eu       2.25003992       0.59804141       1.21100993      -0.00117692       0.00270138       0.00014953
N        2.24386919       4.86519610      -0.59211548      -0.00007224       0.00268107      -0.02392197
N        2.24795927       1.57770571       5.07446387       0.00112085      -0.03897202       0.00204480
N        2.24383678       4.87944947       4.29518879       0.00090884      -0.03550130      -0.02733559
N        0.34757275       5.89754028       1.68042604       0.00107598       0.04145157      -0.00473320
N        0.35131939       2.59457254       2.45572769      -0.00061561       0.03421620       0.02511668
9
Lattice="4.9227369172973106 -0.0014931673721474378 0.0010413431294991542 0.002898347010940164 6.669496162139607 -3.84509496808993 -0.001537586006300609 -0.0009078844286056174 7.701596721644877" Properties=species:S:1:pos:R:3:forces:R:3 sample_seed=87002 sample_index_within_seed=0 benchmark_method=C0 dft_verified=F structure_index=0 total_energy=-41.16319274902344 stress="0.031234100461006165 1.166689344245242e-05 2.4853117793099955e-05 1.166689344245242e-05 0.012171872891485691 -6.054426921764389e-05 2.4853117793099955e-05 -6.054426921764389e-05 0.011260374449193478" pbc="T T T"
Li       4.65766928       3.81977575       3.69551281      -0.00024913       0.00225476       0.00437153
Cd       4.65714710       1.60152284       1.60438660       0.00013627      -0.00093538       0.00009891
Cd       2.19542177       3.82236297       5.45950200       0.00041535       0.00061233      -0.00208775
Eu       2.19680411       3.82620643       1.04585424      -0.00021878      -0.00172585       0.03717289
Li       4.65908077       5.34777174      -1.35927075      -0.00021382      -0.00241010      -0.00291577
Eu       2.19492934       0.97708495       3.80980031       0.00040783      -0.03371840      -0.01838385
Eu       2.19714956       6.67239874       3.81625557      -0.00020759       0.03171156      -0.01947223
Li       4.65629098       2.29406859       6.33564987       0.00002547       0.00468113      -0.00035070
Cd       4.65866964       6.04751675       1.60861219      -0.00009562      -0.00047006       0.00156696
14
Lattice="5.685718597044026 0.12456667014485717 1.1207860353951105 0.05584733934103022 4.824725658854558 2.0009716186347437 0.2560683767613419 0.08281947040324758 7.211582156763522" Properties=species:S:1:pos:R:3:forces:R:3 sample_seed=87003 sample_index_within_seed=0 benchmark_method=C0 dft_verified=F structure_index=0 total_energy=-86.30445861816406 stress="-0.002305141184478998 -0.004471058025956154 -0.005797000136226416 -0.004471058025956154 -0.0018001672578975558 -0.0009210697025991976 -0.005797000136226416 -0.0009210697025991976 -0.002395069459453225" pbc="T T T"
Fe       1.56413940       0.84613912       2.37095234      -0.00870081       0.00900880      -0.00259013
Fe       5.00989065       1.46716324       8.46555452      -0.01504339      -0.01933710      -0.02405483
Rh       0.52408572       4.19772991       7.58098986       0.00930130      -0.00478093       0.00413185
O        5.70308701       2.89299884       7.36499180       0.01170398       0.00067903       0.01569420
O        1.18584213       0.53211688       7.33821456      -0.00693922       0.00339207      -0.00046277
Pb       5.24451444       3.14402200       5.06059655      -0.00027055       0.03218757       0.03789407
Pb       2.32992535       1.97680556       5.78657937       0.00941331      -0.01998867      -0.02599993
O        4.30932290       4.86114787       9.41048741      -0.00841802       0.00187406      -0.02257513
O        0.59924938       0.90485526       4.08895684      -0.00252783       0.00684945       0.00991948
O        2.48248225       3.79235504       7.33046030       0.01474862      -0.02321413      -0.00831569
O        1.86346133       3.76313363       4.17974893      -0.00356528       0.00528973      -0.00233543
O        3.26746759       1.79721703       2.39569025      -0.00567172      -0.01197873       0.00326902
Rh       2.33983356       3.63443074       2.16947611      -0.00125933      -0.00223286      -0.00526650
O        0.53191119       2.55580336       1.82999974       0.00722885       0.02225149       0.02069198
6
Lattice="4.143663656782083 -0.0004665335388449343 2.3900713099266584 1.3816926915327565 3.9063610524088324 2.3934336520835413 0.0009749110459867076 -0.0008388013822370853 4.784433972874033" Properties=species:S:1:pos:R:3:forces:R:3 sample_seed=87004 sample_index_within_seed=0 benchmark_method=C0 dft_verified=F structure_index=0 total_energy=-47.567665100097656 stress="0.08021291345357895 0.000876810634508729 -0.0163363516330719 0.000876810634508729 0.09804612398147583 0.01478933822363615 -0.0163363516330719 0.01478933822363615 0.08514515310525894" pbc="T T T"
Fe       1.96843271       3.90555661       3.73940205      -0.01950669      -0.01281245      -0.03280529
Fe       1.27646841       1.95064743       2.54200028       0.00175980       0.03992307       0.00042786
Fe       1.96804396       3.90454178       6.12974647      -0.01606032      -0.01040653       0.03277468
Pt       4.04063633       2.44082402       7.32596529      -0.00326896      -0.00635389      -0.00433971
Rh       2.65871085       1.46316082       4.93213231      -0.00108547       0.00055646       0.00351563
Fe       4.03819297       3.90497454       4.93371325       0.03816162      -0.01090677       0.00042691
10
Lattice="5.012347761766853 0.028465997334565726 -1.5010258910811827 -3.0641231036379613 4.240096814439909 -0.08981323350822243 0.09806523447326648 -0.04642428029676176 7.712218484212265" Properties=species:S:1:pos:R:3:forces:R:3 sample_seed=87005 sample_index_within_seed=0 benchmark_method=C0 dft_verified=F structure_index=0 total_energy=-91.33781433105469 stress="0.022620564326643944 0.0008579768473282456 0.0018455759854987264 0.0008579768473282456 0.02253381349146366 -5.4829029977554455e-05 0.0018455759854987264 -5.4829029977554455e-05 0.025478078052401543" pbc="T T T"
Gd       2.38472882       1.77894091       5.62708840      -0.00497344      -0.00441001      -0.01714499
Co      -0.11321452       1.74377396       2.47533016       0.01689752       0.00489937       0.02950760
Co      -0.50995799       3.03711660       5.45761978       0.01034057      -0.00508980       0.00150816
Co      -1.31603647       4.09133153       3.46150267       0.01256159      -0.02115327      -0.01438065
Co       1.14952009       4.22958740      -1.10235871      -0.00594394       0.00580617      -0.00173366
Co       1.87490934       3.09661945       0.82416203      -0.03180207       0.02284682       0.01777707
Gd       4.50696353       0.06602278       3.62911549       0.01065615      -0.00388883       0.00595620
Gd       2.12710003       0.12963190       0.88600864      -0.02053097       0.00794588      -0.00688255
Co       0.12026592       1.97465704      -0.26319022      -0.00745399      -0.00172358       0.00540671
Co       2.72671278       1.99568286       2.75235194       0.02024860      -0.00523259      -0.02001379
10
Lattice="3.106063930177124 -0.004258224836707172 0.38261707598888917 0.004771429722250592 3.330905761991001 0.0025030897241107674 -0.03689261811694202 -0.0035847572515824194 12.930073360810018" Properties=species:S:1:pos:R:3:forces:R:3 sample_seed=87006 sample_index_within_seed=0 benchmark_method=C0 dft_verified=F structure_index=0 total_energy=-57.17511749267578 stress="-0.010444814339280128 0.0006149198743514717 -9.233271703124046e-05 0.0006149198743514717 0.021275730803608894 -0.0004242593131493777 -9.233271703124046e-05 -0.0004242593131493777 -0.008173840120434761" pbc="T T T"
Zn       0.27488382       1.28383153       6.16453766       0.00019093       0.00106339      -0.01988019
O        1.98556530       1.28276249       5.07327096      -0.00408880      -0.00096907       0.02846572
Fe       0.85993153       1.28567938       1.43499782       0.00055376       0.00195012      -0.01420242
Zn       2.11753062       2.94880699       4.00282401       0.00135062      -0.00050232       0.03968821
Fe       1.52626351       2.94585627       8.82064160       0.00503092      -0.00049565      -0.03008690
O        2.54599867       1.28465666      13.16811792      -0.00178609      -0.00146201       0.00756419
O        0.72188008       2.95128893       2.54123897      -0.00623592       0.00062898       0.03938927
O        0.14423437       2.94878704       7.24292585       0.00220571      -0.00025561      -0.02446511
O        2.92856311       2.94233898      10.23740517       0.00297712      -0.00029377      -0.01339257
Fe       2.68796418       2.95106897      12.08199728      -0.00019815       0.00033582      -0.01308016
20
Lattice="5.692119846965223 -6.547257691049202e-06 -0.09665596079139378 8.867072456154844e-05 5.929352657014405 -0.0014394682163494125 0.006345935358385868 0.0026369700071666754 8.206426534097426" Properties=species:S:1:pos:R:3:forces:R:3 sample_seed=87007 sample_index_within_seed=0 benchmark_method=C0 dft_verified=F structure_index=0 total_energy=-176.6026153564453 stress="-0.0016031665727496147 -0.00011462834663689137 -0.004961583763360977 -0.00011462834663689137 0.002783572068437934 0.0003727565344888717 -0.004961583763360977 0.0003727565344888717 0.007910000160336494" pbc="T T T"
O        1.10138784       0.03821082       7.65134899       0.00459722      -0.01069134       0.02879545
Eu       0.21691622       4.32771180       0.97434196      -0.00945956       0.01274224       0.01062828
Eu       2.86085754       1.36257127       0.93381163       0.00411921       0.01742949      -0.00825331
Nd       0.11700028       1.68360461       3.03068926      -0.00067330       0.00041025      -0.00091154
Nd       2.96619310       4.65036102       7.08502965       0.00154411      -0.00063943      -0.00301176
Mn       0.12009773       1.68583437       7.13390016       0.00034137      -0.00266110       0.00027356
Mn       2.96301874       4.64826623       2.98199150       0.00039288       0.00140195      -0.00156055
O        4.83140831       3.33393334       6.52010809      -0.00428069       0.00671595      -0.02626293
Eu       3.06549249       2.00542520       5.03023236      -0.00592241      -0.01575014       0.01189561
Eu       0.01738270       4.96929016       5.08492999       0.00847080      -0.01070498      -0.00852592
O        1.38419924       5.71621419       2.54619397      -0.01592213      -0.00282136       0.02062556
O        3.94392380       0.36700477       3.50096221       0.00808156       0.00600100       0.02448818
O        4.23267323       0.61801716       6.60335442      -0.01240498       0.00218797       0.01779090
O        4.54151269       3.57970672       3.41842984       0.01428926       0.00443801      -0.02374144
O        5.16171695       1.97493228       0.68714965      -0.01488750       0.00287393       0.01068184
O        1.69951669       2.75374949       7.56865360       0.01077810      -0.00211874      -0.01822090
O        2.31905838       4.35684542       4.83832359      -0.02155188       0.00311305       0.00813523
O        1.98197003       3.00006996       2.46494340      -0.00527313      -0.00679871      -0.02785909
O        3.60714984       4.94027103       1.12517513       0.02098630      -0.00386289      -0.00422043
O        0.76395441       1.39329738       5.27778519       0.01677441      -0.00126511      -0.01074719
6
Lattice="2.844686932338484 -0.0002031671940689528 0.00044151642749517135 0.0004741188398883978 3.8271866471073746 -1.2680962827486897 -0.0008532565861671841 0.00038694149582455564 6.406780305450046" Properties=species:S:1:pos:R:3:forces:R:3 sample_seed=87008 sample_index_within_seed=0 benchmark_method=C0 dft_verified=F structure_index=0 total_energy=-48.218360900878906 stress="0.05125699192285538 0.00046968538663350046 0.001095211016945541 0.00046968538663350046 0.08363636583089828 0.004848449025303125 0.001095211016945541 0.004848449025303125 0.0686713233590126" pbc="T T T"
Fe       0.78725948       1.81025632       1.01671174       0.00290892      -0.01058278      -0.03789571
Fe       2.21016209       2.44568824       2.93336535      -0.00209624       0.00929436       0.02588263
Fe       0.78750590       3.08807405       4.87587701      -0.00103811       0.00901137      -0.00783466
Fe       2.20945310       1.16586253       5.48077956      -0.00006382      -0.00945324      -0.00990744
Co       2.21010295       3.71913561       0.36697069       0.00032149      -0.01077310      -0.01666380
Co       0.78739795       0.53571701       3.57726926      -0.00003219       0.01250338       0.04641905
4
Lattice="4.085652820558504 -0.013784197896572042 -2.243481954121153 -1.2075203968569197 3.9113598601576123 -2.2491375220273078 0.21786551856873435 0.28770736078396886 5.207589053698077" Properties=species:S:1:pos:R:3:forces:R:3 sample_seed=87009 sample_index_within_seed=0 benchmark_method=C0 dft_verified=F structure_index=0 total_energy=-22.24675941467285 stress="-0.0752616599202156 0.011385717429220676 -0.006864252034574747 0.011385717429220676 -0.0710705891251564 -0.006245072465389967 -0.006864252034574747 -0.006245072465389967 -0.046069953590631485" pbc="T T T"
Eu       1.35174924       3.25977223      -1.87987115      -0.00062269       0.00524329      -0.00155867
Au      -0.08779424       1.31126210       0.36577942       0.00046903      -0.00059675       0.00056688
Au       2.79249492       2.41562018       0.72272805       0.00991630      -0.01147452      -0.00204004
Au       1.33611447       0.48266538       2.97332820      -0.00976264       0.00682798       0.00303184
16
Lattice="5.345016611846508 0.0014809165859659466 3.092335634284985 1.7968631824963888 5.055200903833364 3.090408852504973 0.004056563462463434 0.005586374181894441 6.191301733165788" Properties=species:S:1:pos:R:3:forces:R:3 sample_seed=87010 sample_index_within_seed=0 benchmark_method=C0 dft_verified=F structure_index=0 total_energy=-103.55147552490234 stress="-0.010467196814715862 -0.0008336149039678276 0.0025555763859301805 -0.0008336149039678276 -0.016781365498900414 0.005309091880917549 0.0025555763859301805 0.005309091880917549 -0.014250858686864376" pbc="T T T"
Mn       3.64353549       1.02032252       5.00133280      -0.00320226       0.00064382       0.00091886
Mg       4.54180306       3.54805116       6.54674535      -0.00315845      -0.00083571      -0.00184776
O        6.40081012       4.78698754       9.63911676       0.01930705      -0.00454926       0.00513896
Ni       1.87083042       3.54975800       8.09620083       0.00127897      -0.00062833      -0.00123770
Ni       0.97021941       1.01911163       3.45555188       0.00249128       0.00119988      -0.00293098
O        5.45869190       2.30830369       8.04070912      -0.00795764       0.00540947      -0.00255919
Mn       4.54332399       3.55071001       9.64199677      -0.00103300       0.00010894       0.00271840
Mn       0.97312078       1.02260055       6.55101342      -0.00047499      -0.00094641       0.00105347
Mn       3.64554018       1.02302006       8.09732702      -0.00352053      -0.00030780      -0.00243821
O        6.32431379       4.74504853       6.54414304      -0.01138632      -0.00035796       0.00183554
O        3.62440439       4.78739543       5.05259480       0.00733545      -0.00522424       0.00174709
O        2.68160895       2.30793591       3.45365293      -0.01727873       0.00779496      -0.00209346
O        5.45672079       2.30599220       5.05350809      -0.00663039       0.00378807       0.00195856
O        2.75914675       2.35088768       6.54894335       0.00992365      -0.00181901      -0.00045942
Ni       1.86882155       3.54700105       5.00030753       0.00353065       0.00001842       0.00053095
O        3.62568193       4.78979347       8.03980376       0.01077527      -0.00429499      -0.00233506
9
Lattice="4.343301924452687 -0.00017043581289586412 -0.0022185748031874485 -0.001511060555502229 6.094816250878403 -3.4219515505779348 0.003986998952344687 0.035039900256608796 7.200136627430855" Properties=species:S:1:pos:R:3:forces:R:3 sample_seed=87011 sample_index_within_seed=0 benchmark_method=C0 dft_verified=F structure_index=0 total_energy=-56.30656433105469 stress="-0.005414181388914585 5.367089397623204e-05 8.651801181258634e-05 5.367089397623204e-05 -0.02391059882938862 -0.0009615041199140251 8.651801181258634e-05 -0.0009615041199140251 -0.029324449598789215" pbc="T T T"
Cu       3.98412041       4.03199694       3.46736426      -0.00083261       0.01284113       0.00360838
Eu       1.81219727       2.02695430       2.93529724      -0.00113690       0.02217286      -0.02236881
Eu       1.81100375       5.48591767       1.95894763       0.00142247       0.01929105      -0.01918769
Eu       1.80933257       4.78168949      -1.73848626       0.00017868      -0.02126851       0.01232732
Al       3.98253685       3.44383128       0.66381591      -0.00122271      -0.01239526       0.00549193
Cu       3.98188473       6.07460080      -0.03106295       0.00037091       0.00256042      -0.01561702
Al       3.98451694       2.06644545       5.34650495       0.00133287      -0.00944126       0.01164505
Al       1.81010855       1.98241403      -0.17112018      -0.00028396       0.01252681       0.00573901
Cu       3.98199361       0.74640339       0.52004734       0.00017126      -0.02628728       0.01836180
8
Lattice="2.841580039902793 0.0015630935276125804 -0.00011455270985614405 -0.0015614869270404708 2.841566977773502 1.6034802852421208e-05 0.0005142953455125347 3.5490195800051066e-05 11.324792550553497" Properties=species:S:1:pos:R:3:forces:R:3 sample_seed=87012 sample_index_within_seed=0 benchmark_method=C0 dft_verified=F structure_index=0 total_energy=-60.98481750488281 stress="-0.03495623916387558 4.9658818170428276e-05 1.8631695638759993e-05 4.9658818170428276e-05 -0.0353812538087368 2.02341041699583e-07 1.8631695638759993e-05 2.02341041699583e-07 -0.03506330028176308" pbc="T T T"
Co       0.22920973       1.89518777       8.10312971       0.00158107       0.00043653      -0.00563864
Co       0.23034441       1.89571493       5.29729021      -0.00253665      -0.00087393      -0.02736051
Fe       1.65078624       0.47490757       9.53581080       0.00060620       0.00106994       0.01516957
Co       1.65077714       0.47547123       1.04406076       0.00113386      -0.00126773       0.02058472
Fe       1.65117882       0.47558600       6.67025003       0.00146562      -0.00081825      -0.03218090
Co       0.22937595       1.89493501      10.90473612       0.00047632       0.00157500       0.04199107
Co       1.65208642       0.47560867       3.83295529      -0.00317860       0.00010355      -0.02243890
Fe       0.22978672       1.89556682       2.43733765       0.00045224      -0.00022504       0.00987371
8
Lattice="4.79101638624907 -0.0440183402975582 -1.1125154861743967 -3.435348927822951 3.983322157459316 -1.459435542488498 -0.03895411054660209 -0.003039320955901563 4.825117863725739" Properties=species:S:1:pos:R:3:forces:R:3 sample_seed=87013 sample_index_within_seed=0 benchmark_method=C0 dft_verified=F structure_index=0 total_energy=-63.314422607421875 stress="-0.04132380709052086 -0.012718121521174908 -0.006793179549276829 -0.012718121521174908 0.001656905747950077 0.026007208973169327 -0.006793179549276829 0.026007208973169327 -0.052213989198207855" pbc="T T T"
Fe       1.85041967       1.25997534       2.64039906      -0.02004032       0.00145726      -0.03699787
Fe      -1.15681352       3.17394985      -0.08732687       0.01975200      -0.02862525       0.00513581
Fe       2.86830604       1.14294755       0.06597005      -0.02230559      -0.00764061      -0.00920371
Fe       0.21087989       3.22492870       2.01675414       0.02009891       0.00402226       0.00607401
Si       0.43315161       1.15888346       0.71869610      -0.01700402      -0.04046397       0.00884455
Fe       1.23099307       3.10502457      -0.55962899       0.01583780       0.00842300       0.03926405
Si      -2.14602267       3.25307681       2.47690369       0.02364777       0.03774339      -0.01129764
Fe      -0.55292215       1.23640656       3.28053299      -0.01998656       0.02508392      -0.00181925
12
Lattice="3.5067699961929573 2.5999956160835898e-05 0.0027328219736881473 -3.459040660202774e-05 5.053919639590985 0.021694439490540163 -0.005785269283087019 0.03002333281515542 7.599013498243753" Properties=species:S:1:pos:R:3:forces:R:3 sample_seed=87014 sample_index_within_seed=0 benchmark_method=C0 dft_verified=F structure_index=0 total_energy=-96.74409484863281 stress="-0.0343971811234951 -0.00012162873463239521 0.00034311143099330366 -0.00012162873463239521 -0.022261882200837135 0.03218797594308853 0.00034311143099330366 0.03218797594308853 -0.0029586039017885923" pbc="T T T"
Mn       3.24271795       1.89543132       5.38300520       0.00063591       0.02150906      -0.01449494
Mn       1.49101876       3.13448161       4.15005695      -0.00180168      -0.02267407       0.01743582
Mn       3.24468679       1.88511512       2.87720617       0.00063327      -0.03945325      -0.01334818
Mn       1.48847382       0.62052762       6.63896664       0.00069271       0.02691026      -0.03448646
Mn       3.24471081       4.40786727       2.89538062       0.00048146      -0.02045711       0.03446415
Co       1.49049221       0.61052125       4.13483168       0.00015563      -0.01829315      -0.00356003
Co       3.24281550       4.41914639       5.39953950       0.00046243       0.01817942       0.00304216
Mn       1.48855814       3.14498963       6.65744143       0.00028032       0.03983127       0.01079165
Co       1.49251895       3.13642979       1.60257074      -0.00018065      -0.01714842       0.00081769
Co       3.24694574       4.38134409       0.34136872      -0.00071884       0.00169181       0.00335331
Co       1.49243268       0.61957910       1.59394382      -0.00005492      -0.00403798      -0.00407152
Co       3.24691225       1.86473238       0.33225690      -0.00058566       0.01394213       0.00005626
4
Lattice="5.269634522165725 0.0025283545035124024 -0.0027409527664110245 -0.002064539187020434 4.954232908587841 -0.0012759953717032607 0.0029743251330417698 0.0014837274856496874 4.9542390751663286" Properties=species:S:1:pos:R:3:forces:R:3 sample_seed=87015 sample_index_within_seed=0 benchmark_method=C0 dft_verified=F structure_index=0 total_energy=-31.919227600097656 stress="0.05868619680404663 0.0010276297107338905 0.0013084346428513527 0.0010276297107338905 0.060554008930921555 0.0006090255919843912 0.0013084346428513527 0.0006090255919843912 0.06057259067893028" pbc="T T T"
Y        4.83822481       4.12627388       2.16850961       0.00103143      -0.00108674      -0.00007888
Eu       2.20531949       4.12446626       4.64730260      -0.00035596       0.00108097      -0.00051882
Eu       2.20471003       1.64723304       2.17081346      -0.00010184      -0.00011489      -0.00070858
Pb       4.84134827       1.64908559       4.64547932      -0.00057364       0.00012067       0.00130630
14
Lattice="4.9281917426329755 0.00018780797315358618 -0.940871248584399 -1.7353417161818283 4.763732138568785 -2.3721233633042207 0.014468860881745465 0.008952340085125495 6.626885276130295" Properties=species:S:1:pos:R:3:forces:R:3 sample_seed=87016 sample_index_within_seed=0 benchmark_method=C0 dft_verified=F structure_index=0 total_energy=-94.9773941040039 stress="0.028670329600572586 0.0012669339776039124 0.001964312046766281 0.0012669339776039124 0.023764032870531082 0.00022018089657649398 0.001964312046766281 0.00022018089657649398 0.025945529341697693" pbc="T T T"
Ni       2.61860686       0.89407663      -0.63468993       0.00264297      -0.00537244      -0.00140630
Fe      -0.44085038       3.63994964       3.16613588      -0.00759647      -0.01035854       0.00729882
Fe       3.52533281       2.23465129       4.11357842       0.01810691       0.00424733      -0.01282083
Fe       2.39923211       4.29432690      -1.62794280       0.01400941       0.00597242      -0.00526025
Ni      -0.93230402       2.93728094       0.78358597      -0.00658193      -0.00175135      -0.00145529
Fe       4.62181011       0.18363190       3.15186970      -0.00325177       0.01218330      -0.00594785
Ni       1.52655797       2.92887439       0.29545754       0.00585306      -0.00378881       0.00155491
Fe       0.67307077       1.57879373       2.18435727      -0.00701260      -0.00608298       0.01999395
Ni       1.06674500       2.24534257       4.56232381       0.00911073       0.01060393      -0.00954109
Ni       3.11542213       1.58305441       1.71920075      -0.01878477      -0.00125008       0.00137103
Ni       2.00570955       3.61949886       2.66452131      -0.01222477      -0.01936733       0.01899670
Ni       2.17569927       0.20410286       3.62993902      -0.01787197       0.00832983      -0.00867767
Ni       0.15707386       0.87996875      -0.17668223       0.02060203       0.00168733       0.00125562
Ni      -0.03507074       4.28131627      -1.09100852       0.00299915       0.00494744      -0.00536174
12
Lattice="4.827795835398516 0.0006764251444358322 1.449763410849593 2.195609860540808 4.299816910692928 1.4495724643829313 0.00927081877542526 0.005909138025869594 8.732475316019007" Properties=species:S:1:pos:R:3:forces:R:3 sample_seed=87017 sample_index_within_seed=0 benchmark_method=C0 dft_verified=F structure_index=0 total_energy=-86.10269927978516 stress="-0.03925634175539017 -0.00023614571546204388 0.0013602657709270716 -0.00023614571546204388 -0.03873389959335327 0.0007321311277337372 0.0013602657709270716 0.0007321311277337372 -0.04319143667817116" pbc="T T T"
Ni       1.31993115       1.35823056       1.17017113       0.01386054       0.00943897      -0.04283500
Fe       4.40387589       0.29105735       4.06727882       0.00663173       0.00575852       0.03697965
Ni       5.99298023       4.22004907       3.13819961      -0.01629845      -0.00996526       0.04440073
Dy       2.66611086       2.18262678       5.45287174      -0.00675766      -0.00294330       0.01897661
Fe       5.49668082       2.43230505       4.78840802      -0.00676417      -0.02739234       0.02792822
Fe       0.72233500       0.99315706       7.52406029      -0.00662072      -0.00546122      -0.03548247
Fe       1.97927913       0.29072595       3.33926938      -0.02527677       0.00619187       0.02533093
Fe       4.97753061       0.64283343       6.51991065      -0.00199558      -0.00161603       0.00397394
Dy       4.65573768       3.40119444       7.59019683       0.00714188       0.00442727      -0.02893158
Fe       1.82512879       3.15232624       8.25230227       0.00744164       0.02503484      -0.02470830
Fe       3.14682913       0.99319866       8.25249147       0.02675479      -0.00409953      -0.02595441
Dy       3.65578029       2.78886394       2.15460610       0.00188267       0.00062621       0.00032172
16
Lattice="6.473326042997522 0.00026638477358287705 2.7001025126547535 1.9146857283540284 7.950175329709415 1.9537851793223204 0.10947704848026656 0.02162785914870776 8.849996265110876" Properties=species:S:1:pos:R:3:forces:R:3 sample_seed=87018 sample_index_within_seed=0 benchmark_method=C0 dft_verified=F structure_index=0 total_energy=-151.85076904296875 stress="0.0011965908342972398 -0.0005565494648180902 -0.0006101234466768801 -0.0005565494648180902 -0.001745078363455832 0.00011547605390660465 -0.0006101234466768801 0.00011547605390660465 -0.0016790305962786078" pbc="T T T"
Eu       4.85418856       6.31906848      10.84396549       0.00193808       0.00091940      -0.00221042
Eu       2.55253420       1.83066203       4.23253491       0.00233380      -0.00268458       0.00736746
P        0.13052380       0.34499672       3.60156350      -0.00252179       0.00032747       0.00235141
Eu       2.10084086       7.59880143       8.32599722      -0.04344390       0.01554748      -0.00864112
Eu       7.50080007       5.01470001       4.51057515       0.04718661      -0.00870421       0.00628657
Eu       5.13551235       2.83523812       6.65079358       0.00092597       0.00393567      -0.00714418
Eu       6.09303140       6.81250097       7.62655212      -0.00081124       0.00172826      -0.00584308
Eu       3.90073582       2.34456999       9.86620775      -0.00220422      -0.00019855       0.00036353
Eu       6.54555234       1.04184424       3.53220878       0.04290688      -0.01486869       0.00700334
Eu       3.51205778       5.80431738       5.20837467      -0.00155889      -0.00120360       0.00965160
P        6.06931434       7.59028136       4.48558033       0.03204941      -0.00252465      -0.02771294
P        2.57475124       1.05263589       7.37366176      -0.02695175      -0.00044972       0.02802423
P        1.08637298       4.32142395       4.58026439      -0.00127390      -0.00221625      -0.00029335
Eu       1.14445915       3.62798859       7.35064564      -0.04475464       0.01060675      -0.00992726
P        3.53762288       5.02677283       8.34740774      -0.03381313       0.00176199       0.03266432
P        5.11067594       3.61472762       3.51155846       0.02999263      -0.00197666      -0.03194013
4
Lattice="3.7670061818511202 -0.0005998606290143291 2.1754989622497964 1.253989549539561 3.551932487694634 2.1786765891216526 -0.0009757182230692989 -0.0013026537344307976 4.351560663021451" Properties=species:S:1:pos:R:3:forces:R:3 sample_seed=87019 sample_index_within_seed=0 benchmark_method=C0 dft_verified=F structure_index=0 total_energy=-36.36035919189453 stress="-0.026842277497053146 -0.006042886525392532 -0.0012229504063725471 -0.006042886525392532 -0.01830087974667549 0.013210420496761799 -0.0012229504063725471 0.013210420496761799 -0.013733016327023506" pbc="T T T"
Mn       3.05849804       2.62149633       6.25268304       0.00384782      -0.00033572       0.00326496
Mn       0.54963787       0.84638025       1.90062691      -0.00324889       0.00029394      -0.00173499
Ir       1.80400400       1.73406527       4.07700270       0.00102527      -0.00125830      -0.00228505
Ir       4.31526234       3.51011885       4.07799623      -0.00162419       0.00130001       0.00075509
4
Lattice="4.866786765967681 0.00759027845641319 -0.014191477750157782 -2.4408826004068023 3.4339024230428743 -2.4300200366615967 0.007297431986910575 0.009456574313338514 4.865806337947679" Properties=species:S:1:pos:R:3:forces:R:3 sample_seed=87020 sample_index_within_seed=0 benchmark_method=C0 dft_verified=F structure_index=0 total_energy=-19.517860412597656 stress="-0.019642779603600502 0.006896656006574631 -0.024719934910535812 0.006896656006574631 -0.005648347549140453 0.00893721729516983 -0.024719934910535812 0.00893721729516983 -0.020647194236516953" pbc="T T T"
Zn       2.01532066       2.70076397       1.30740242       0.00206372      -0.00249034       0.00485080
Zn      -0.42403138       2.69056638      -1.11414496       0.00653535       0.00129738      -0.00387562
Gd       2.02145964       0.98302636       3.74469442      -0.00814710       0.00271969      -0.00052297
Mg      -0.41636619       0.97519116       1.31894322      -0.00045198      -0.00152674      -0.00045221
5
Lattice="3.8856967378814056 -9.824478798863348e-05 -1.523106225771667 -0.9973157873067697 4.598430740378764 -2.54565580709654 -0.015229946838345729 0.027752927476542132 5.680088201389352" Properties=species:S:1:pos:R:3:forces:R:3 sample_seed=87021 sample_index_within_seed=0 benchmark_method=C0 dft_verified=F structure_index=0 total_energy=-41.53423309326172 stress="0.07643347233533859 0.012765106745064259 -0.0144498897716403 0.012765106745064259 0.004323878791183233 0.029104838147759438 -0.0144498897716403 0.029104838147759438 0.04945308715105057" pbc="T T T"
Eu       3.11257756       1.65851121       0.72739060      -0.00065060      -0.00220184      -0.00057530
Mn       2.04763355       3.03506819      -1.99032810       0.00079728      -0.00108764       0.00183133
Eu       0.96700726       4.43932914       0.97377478       0.00166300       0.00268333       0.00002027
Ni       0.35700391       1.87203205      -0.58518576      -0.00667184       0.03141656      -0.01581768
Ni      -0.14645810       4.19819459      -1.87027352       0.00486215      -0.03081036       0.01454139
8
Lattice="3.150465175975586 -0.00018985566581998783 0.0009147390250717224 0.0010811588687403974 5.147474822586858 -1.8201854543780651 -0.001484859634965004 -0.001596298370753095 5.459807137519488" Properties=species:S:1:pos:R:3:forces:R:3 sample_seed=87022 sample_index_within_seed=0 benchmark_method=C0 dft_verified=F structure_index=0 total_energy=-58.720916748046875 stress="0.075702965259552 0.002356293611228466 0.0020034443587064743 0.002356293611228466 0.08040191233158112 -0.0018856761744245887 0.0020034443587064743 -0.0018856761744245887 0.07947225123643875" pbc="T T T"
Mn       2.22516366       4.42700037      -1.20665758      -0.00010556      -0.00147518      -0.00545465
Mg       0.64898288       1.85419470      -0.29692318       0.00197200      -0.00618001      -0.00374660
O        2.22334146       0.61132260       4.28590803      -0.00095819       0.02892088       0.02420965
Mn       0.64896298       4.42665680       1.52271221       0.00115625      -0.00058558       0.00317471
O        2.22470221       3.09402845       0.58005982      -0.00126869      -0.03491239      -0.01820959
Mn       2.22372438       1.85231332       2.43297136       0.00065424       0.00022031       0.00226499
O        0.64821173       3.11033823       3.38107134       0.00118655      -0.00172240       0.01598466
O        0.64924639       0.59276579       1.48436154      -0.00263669       0.01573445      -0.01822324
8
Lattice="4.6896403444285575 -0.03304461048428185 -0.8009980416357765 -2.510387310617166 3.8931744626949194 -0.8039750479804085 0.009372908981140734 0.03262246871301735 4.719570134751609" Properties=species:S:1:pos:R:3:forces:R:3 sample_seed=87023 sample_index_within_seed=0 benchmark_method=C0 dft_verified=F structure_index=0 total_energy=-54.599388122558594 stress="-0.011248774826526642 -0.044904593378305435 0.0011508833849802613 -0.044904593378305435 -0.01208694837987423 0.03876261040568352 0.0011508833849802613 0.03876261040568352 -0.016659047454595566" pbc="T T T"
Rh       2.96767989       0.07733734       1.39962087       0.02752675      -0.02741833       0.01362507
Fe       0.52996196       1.24691633       1.42161406       0.02002564       0.00414734       0.00153596
H        1.43233770       2.73966725       1.40752960      -0.00339807      -0.01517390       0.01333815
Fe       3.01287310       2.59312591       0.63556463       0.00893687      -0.01526178      -0.00719055
Fe       1.57550325       3.43305378       3.02220551      -0.00770051       0.02292986      -0.02126040
Rh       1.63345437       0.65495310       3.79649001       0.00594999       0.02925760       0.00729530
Fe      -0.58774482       2.03875398       3.73410501      -0.03011577      -0.00432726      -0.01243751
H        2.53771638       2.12277426      -1.00407127      -0.02122487       0.00584652       0.00509400
4
Lattice="2.3962941292563187 -0.0003093066775670847 -0.7198486076049201 -0.20803746729057276 4.326352355524748 -0.6944201361451379 -0.002688496129383361 0.018621311185409918 4.338642629734616" Properties=species:S:1:pos:R:3:forces:R:3 sample_seed=87024 sample_index_within_seed=0 benchmark_method=C0 dft_verified=F structure_index=0 total_energy=-28.570697784423828 stress="-0.13485857844352722 -0.013951736502349377 0.01462157815694809 -0.013951736502349377 -0.0740106925368309 -0.051240090280771255 0.01462157815694809 -0.051240090280771255 -0.09420932829380035" pbc="T T T"
Fe       1.59228414       3.62384738       0.42672386      -0.00393483       0.02266169      -0.01528373
Ni       2.24349079       2.65362577       2.59392619      -0.00079010      -0.02777558      -0.00413105
Ni       0.50637885       1.48779263       1.16001075       0.00045123       0.02750663       0.00356306
Fe       1.15744725       0.51748129       3.32703284       0.00427370      -0.02239273       0.01585173
10
Lattice="5.220437420677371 -0.006925218566434836 0.028634266716246685 -2.51329405805585 3.926824152959269 -2.5040977554555734 0.01388867077008145 0.0055414941473389615 5.573454963621044" Properties=species:S:1:pos:R:3:forces:R:3 sample_seed=87025 sample_index_within_seed=0 benchmark_method=C0 dft_verified=F structure_index=0 total_energy=-68.11082458496094 stress="0.0316445454955101 -0.0019461072515696287 -0.01124808844178915 -0.0019461072515696287 0.027698613703250885 -0.001979281660169363 -0.01124808844178915 -0.001979281660169363 0.02783382125198841" pbc="T T T"
Mn       1.09713545       3.30867582      -1.95254634      -0.00063707      -0.00674823       0.02660778
Ga      -1.49004015       3.33617521       0.91326714       0.03059953       0.02680341      -0.00557309
O        0.25233690       3.74702277       1.78974451      -0.00351090       0.00793627       0.01795325
Mn       1.07311712       1.61099632       1.13481102      -0.00388796      -0.01116932      -0.00047976
Sn       3.68938709       1.69578928       4.06645982      -0.02488100      -0.00089988      -0.00121309
O        2.09451668       2.63367426      -0.42174226      -0.02298647      -0.01881444      -0.02541608
O       -0.61202558       3.60734536      -1.05638845       0.00257349       0.01001412       0.03831179
O       -0.91378030       1.44749680       0.45280048      -0.00898765      -0.02980398      -0.00879741
O        2.67251291       2.61818787       2.48634651       0.03342125       0.01946769       0.00500667
O        0.27837095       1.18258504       3.22948436      -0.00170338       0.00321427      -0.04640004
12
Lattice="4.458364685328273 -0.0004021903210710639 -0.00033989225664685953 0.00019259846331950252 4.774280104900039 -0.015086212567452255 0.0005049792336418901 0.023136446320923057 8.18309122190071" Properties=species:S:1:pos:R:3:forces:R:3 sample_seed=87026 sample_index_within_seed=0 benchmark_method=C0 dft_verified=F structure_index=0 total_energy=-87.02996826171875 stress="-0.03254399076104164 5.8595182963472325e-06 2.1721336452174e-05 5.8595182963472325e-06 -0.029501963406801224 -0.0005740546039305627 2.1721336452174e-05 -0.0005740546039305627 -0.02986619621515274" pbc="T T T"
Fe       1.32911437       0.89265580       1.22627020       0.00131694       0.00708457      -0.01297520
Pt       1.32967911       3.27058033       8.08911810       0.00027811      -0.01044350      -0.00508598
Pt       3.55858060       4.12596920       4.01619470       0.00130556       0.00596912      -0.00305739
Fe       3.55827454       4.05534941       6.68715326       0.00129673      -0.04764823      -0.00316974
Pt       3.55874369       1.68207753       7.97401735      -0.00006658      -0.00331360      -0.00146737
Pt       3.55881729       4.10470866       1.24549347      -0.00075309       0.02027480      -0.01249613
Fe       1.33000744       3.27873756       2.59544307      -0.00121135       0.03683187      -0.00813317
Pt       3.55916657       1.71591913       2.62669939      -0.00098439       0.02328753      -0.00852817
Fe       1.33007085       0.84070802       3.90676936      -0.00204760       0.03342965       0.02291860
Pt       1.32940818       0.82620556       6.60518357      -0.00051712      -0.02724235       0.01119176
Fe       3.55854177       1.69160984       5.30222344      -0.00034093      -0.03198260       0.01778284
Pt       1.32911936       3.18621059       5.25286252       0.00172372      -0.00624716       0.00302005
10
Lattice="4.248355707170124 0.0021268291092544364 -0.8931514659249925 -0.21899309527660435 4.758969727161846 -1.0303243320102082 0.14564136861276133 -0.05535964168139746 11.242467585122537" Properties=species:S:1:pos:R:3:forces:R:3 sample_seed=87027 sample_index_within_seed=0 benchmark_method=C0 dft_verified=F structure_index=0 total_energy=-102.35739135742188 stress="0.015406434424221516 0.0001503162202425301 -0.0005172634846530855 0.0001503162202425301 0.009849493391811848 0.0007228502654470503 -0.0005172634846530855 0.0007228502654470503 0.013012866489589214" pbc="T T T"
Gd       3.37969866       2.59468994       2.00041569      -0.00885090      -0.00685199      -0.03958511
Gd       2.57690820       1.51983420       8.73254138       0.00855960       0.00538420       0.03609434
Gd       1.91697087       3.30608821       5.59564745       0.00611519       0.00640206       0.02891025
Pb       0.31155632       3.86304238       8.51146878      -0.00179773       0.00106423      -0.00460716
Gd       4.03940012       0.80797372       5.13526239      -0.00390971      -0.00454148      -0.02171767
O        2.90556122       2.08495991      -0.25400731      -0.00104941      -0.00086009      -0.00529209
Sm       2.79585802       4.46453852      -0.76958331      -0.00023660      -0.00104043      -0.00266289
O        3.86384699       3.11637857       4.30479952       0.00017143       0.00011293       0.00331905
Pb       1.39660409       0.24881829       3.11370072       0.00173806       0.00051324       0.00684084
O        2.09285485       0.99794471       6.42676236      -0.00073985      -0.00018254      -0.00129959
12
Lattice="4.695309271227839 0.010673171654225069 2.2294681064548794 1.8089018545883269 4.3347119651034225 2.226183825936954 0.011756216139094484 0.012083654162938537 6.033396022808124" Properties=species:S:1:pos:R:3:forces:R:3 sample_seed=87028 sample_index_within_seed=0 benchmark_method=C0 dft_verified=F structure_index=0 total_energy=-69.24364471435547 stress="0.020017843693494797 -0.002526059513911605 -0.005405226722359657 -0.002526059513911605 0.020522650331258774 -0.0013754157116636634 -0.005405226722359657 -0.0013754157116636634 0.025410734117031097" pbc="T T T"
Mn       1.88940900       1.73526157       5.68540124      -0.00058914       0.00132288      -0.01339400
Mn       2.99226200       2.46749089       3.35770663      -0.01085571       0.00034548       0.00979747
O        5.49472824       2.10963746       5.97220741      -0.01923856       0.00030664      -0.00773419
Ni       4.42571816       0.30270247       6.40894459       0.00494056       0.00955783      -0.00041628
Ni       4.08439963       3.20299207       7.11405443      -0.00701610      -0.01376939       0.00160831
Ni       0.79689445       1.00135627       1.92923966       0.00402570       0.01056320      -0.00367510
O        2.53565607       4.27110654       8.26351277      -0.04242705       0.01296838      -0.01847634
O        3.06976546       3.61755948       5.29978069       0.02449796       0.01018775       0.00927405
Ni       5.14998133       3.91074668       4.86352632       0.00174642      -0.00483182       0.00411702
O        3.44748677       0.59459542       4.52185397       0.02095205      -0.04491863       0.00323672
O        2.95014604       1.35283489       7.53775541       0.01560332      -0.01848432       0.00854959
O        5.10961019       2.86598198       9.04195494       0.00836032       0.03675170       0.00711273
8
Lattice="3.7457019803899394 -0.0011688661588660776 -0.0018720655419181536 -1.8717466410160355 3.2445330446853915 0.0007119751399005394 0.005759864110192902 0.0008703219954861219 11.305609401883693" Properties=species:S:1:pos:R:3:forces:R:3 sample_seed=87029 sample_index_within_seed=0 benchmark_method=C0 dft_verified=F structure_index=0 total_energy=-57.31976318359375 stress="0.03149466961622238 -4.3358293623896316e-05 8.986555621959269e-05 -4.3358293623896316e-05 0.031427495181560516 5.104046977066901e-06 8.986555621959269e-05 5.104046977066901e-06 0.04066544026136398" pbc="T T T"
Zn      -0.43777230       2.84814177       6.33673634       0.00033119       0.00042084       0.04722657
Eu       3.30745665       0.68390546       3.53959502      -0.00073214      -0.00018840      -0.00004327
Zn      -0.43866049       2.84757193       0.33791653      -0.00051000       0.00010275      -0.01190370
O       -0.43552890       2.84845508       9.71996939       0.00052449      -0.00021680      -0.02638838
O       -0.43713993       2.84770072       4.39614341       0.00037238      -0.00003231       0.02269493
Eu       1.43631817       1.76661924       8.74565226       0.00065720      -0.00046624      -0.02552360
S        1.43430992       1.76573894       1.33142375      -0.00110441      -0.00006708      -0.02757800
O        3.30858256       0.68327187       7.03016436       0.00046139       0.00044711       0.02151543
4
Lattice="4.041813631485092 -0.002043652107822935 -0.00010128900637911155 0.000565914945492819 5.357984884480389 -0.001210916712631538 0.0006443462324616406 0.001548746117162828 5.35787124622971" Properties=species:S:1:pos:R:3:forces:R:3 sample_seed=87030 sample_index_within_seed=0 benchmark_method=C0 dft_verified=F structure_index=0 total_energy=-27.81658363342285 stress="-0.061053793877363205 -0.0075402576476335526 0.0018179368926212192 -0.0075402576476335526 0.04612099751830101 0.0004589736636262387 0.0018179368926212192 0.0004589736636262387 0.045413121581077576" pbc="T T T"
Zn       0.02699546       1.70738044       3.67405551      -0.00165680      -0.00006676       0.00010256
Eu       2.04705009       1.70590351       0.99509563       0.00014258      -0.00058273      -0.00038771
Eu       2.04550425       4.38528194       3.67299571       0.00342284       0.00037305      -0.00011266
Sn       0.02616792       4.38580002       0.99388470      -0.00190861       0.00027644       0.00039782
11
Lattice="3.121168468403215 0.004105083998989586 0.0025151342489814613 -1.5658750876491125 2.699800041556945 -0.003346469894622496 -0.006301063402901299 0.008501938709639995 13.365604785042516" Properties=species:S:1:pos:R:3:forces:R:3 sample_seed=87031 sample_index_within_seed=0 benchmark_method=C0 dft_verified=F structure_index=0 total_energy=-64.60076141357422 stress="-0.02554057352244854 1.4741539416718297e-05 -0.0020381601061671972 1.4741539416718297e-05 -0.02641596831381321 0.0012843654258176684 -0.0020381601061671972 0.0012843654258176684 -0.05532924830913544" pbc="T T T"
Li       0.06874949       1.60403860       4.93923605       0.00234532      -0.00232491       0.01236898
Fe       0.07374059       1.60164506      11.41961077      -0.00105062       0.00042934      -0.02766892
O        1.63337569       0.70370272       3.88391314      -0.00172438       0.00017228      -0.01207498
Li       1.62811576       0.70681316       6.43058845      -0.00246917       0.00233122       0.01408254
Li       1.63987582       0.69689283       0.23117096       0.00117952      -0.00100238       0.04513895
O        1.62364498       2.50869860       6.49926371       0.00285630      -0.00203431      -0.03748992
Fe       1.63183703       2.50308332       2.71586095      -0.00076561       0.00078665       0.03771278
O        0.07364910       1.59983438       1.71337395      -0.00114569       0.00080919      -0.02216887
O        0.06039287       1.60869050       9.45761029      -0.00288663       0.00134638       0.03250808
Fe       1.61950455       2.51056701       8.46827031       0.00492768      -0.00198704      -0.02903734
O        1.63156656       2.50506572      12.43866957      -0.00126677       0.00147356      -0.01337138
