3
Lattice="4.088206370720241 0.00010816371094242696 0.0006355813577390442 -0.0001934652069470965 3.6449548723202927 -2.1045493962227195 -0.0002101822479751194 0.0005847804856417203 4.209089815669177" Properties=species:S:1:pos:R:3:forces:R:3 structure_index=0 total_energy=-20.435508728027344 stress="0.032287005335092545 -0.0012280900264158845 0.002320848638191819 -0.0012278977083042264 -0.068570077419281 -0.0010752183152362704 0.002321545034646988 -0.001074529718607664 -0.07171661406755447" pbc="T T T"
Li       4.08444413       0.64893133       3.42537071       0.00361913       0.00150789      -0.00485105
P        4.08482950       1.86397100       1.31962094       0.00097949      -0.00034863       0.00370322
Eu       2.04222386       3.07906652      -0.78499383      -0.00459868      -0.00115927       0.00114777
