12
Lattice="3.5452460762855136 0.0003080725071073174 0.00020051155501940593 -7.375126994057573e-05 4.761608713087313 -1.5991126030431417 -0.0007804873763925016 -0.013850037447637463 7.952763734637682" Properties=species:S:1:pos:R:3:forces:R:3 structure_index=0 total_energy=-83.21504211425781 stress="0.05753396451473236 0.0034119084011763334 -0.004008396994322538 0.0034119030460715294 -0.0006927000358700752 -0.0293743833899498 -0.004008379299193621 -0.02937454544007778 -0.0006622461369261146" pbc="T T T"
Fe       0.41910719       0.42992209       6.68725820       0.00096755       0.00607451      -0.01275222
Fe       2.19252068       2.83884182       1.85297082      -0.00061457      -0.00303511       0.02369365
Ni       0.42048836       3.61138881       0.31249885      -0.00244898      -0.00566300       0.03025196
Fe       0.41918468       4.41319898       2.69586776       0.00082240       0.01170561      -0.01842091
Fe       0.42045255       1.20723789       1.09111785      -0.00177759      -0.01191656      -0.03680251
Ni       2.19299357       4.40510564      -1.28339836      -0.00151405       0.01907981       0.00622067
Ni       2.19316314       2.03541260      -0.50557253      -0.00247328      -0.00989058       0.02571928
Fe       0.41882849       2.02094969       3.52276366       0.00277939      -0.01510372       0.01500908
Ni       2.19151327       3.60228139       4.30692104       0.00135233       0.01185733      -0.02244597
Ni       0.41908480       2.80640223       5.87338231       0.00080708      -0.00163793      -0.01671144
Ni       2.19240748       0.43961211       2.68575255      -0.00012820       0.00215009       0.01804657
Ni       2.19138566       1.22500417       5.08368079       0.00222791      -0.00362044      -0.01180815
