15
Lattice="5.267763137817383 0.0 0.012473714537918568 -0.009025362867954606 6.178613746578499 -2.139373779296875 0.0 0.0 7.610441207885742" Properties=species:S:1:pos:R:3 pbc="T T T"
Mn       3.18006888       4.43098601       4.04972446
Mn       0.55764102       1.54594983       6.46972206
O        4.57669205       4.25157662       2.45077946
Eu       0.56007867       1.81001606       2.67925244
P        0.55127435       5.09556959       2.02423597
O        3.18813866       5.87323074       5.56847712
P        3.19367677       1.05100148       0.82425152
O        4.45660782       1.89775051       0.44639239
O        0.55977021       0.31750607       4.84856656
O        3.19129144       2.85126620       5.28518085
O        0.55487544       5.27952291       0.48973441
O        3.19483101       0.82204159       2.34912222
O        1.79249404       4.25089864       2.44321736
O        1.92831910       1.89255856       0.44235290
Eu       3.19110731       4.29247420       0.09479479
