8
Lattice="2.8635330200195312 0.0 -0.00024590420071035624 -0.0031489556021331603 2.86395972705083 7.385850040009245e-06 0.0 0.0 11.4542236328125" Properties=species:S:1:pos:R:3 pbc="T T T"
Co       0.22948530       1.90965888       8.20029727
Co       0.23171048       1.91060834       5.35949367
Fe       1.66274792       0.47796183       9.64003683
Co       1.66311868       0.47916018       1.06161759
Fe       1.66247606       0.47870632       6.75499764
Co       0.22958552       1.90882174      11.01403746
Co       1.66522510       0.47848483       3.88578103
Fe       0.22987664       1.90998185       2.45553374
