8
Lattice="3.6954360008239746 0.0 -0.9461548328399658 -0.2449607616468512 3.7056555228296233 -0.9568189978599548 0.0 0.0 7.696139335632324" Properties=species:S:1:pos:R:3 pbc="T T T"
Mn       0.86598758       1.50124062       2.52390038
Ni       2.59041183       3.35414008       1.57158636
Mn       1.73016922       2.42818382       5.90090865
Ni       3.14073541       1.95942199       3.71723409
Mn      -0.00030418       0.57116576       6.84003510
Ni       2.28711008       1.04104358       0.38498909
Pt       0.31058643       2.88807023       0.35306838
Pt       1.42129380       0.11201777       4.69335102
