15
Lattice="3.5454661340484774 -0.005659137488008322 0.0012135905433537154 0.01566687180171865 8.118560419202026 -0.0006024643955866822 -0.0050319973222675155 0.012049120249966306 8.117083690475416" Properties=species:S:1:pos:R:3:forces:R:3 structure_index=0 total_energy=-131.25643920898438 stress="-0.004605836700648069 0.00017873766773846 -0.00016592397878412157 0.00017844006652012467 -0.013300813734531403 -0.0007823235355317593 -0.00016597105422988534 -0.0007830451941117644 -0.013470037840306759" pbc="T T T"
O        2.45893264       0.24765655       6.86944036       0.04659859       0.00887214      -0.01816427
Eu       0.70058789       2.07063096       2.94681733       0.03510641       0.01188497      -0.01008625
Eu       1.93953602       2.52870686       6.78889955      -0.01825896      -0.02249797      -0.01691732
O        2.47043869       2.60279435       4.51039847       0.04260612      -0.01940417       0.01312591
Eu       1.94936576       6.34426186       2.49493946      -0.01925773       0.01634695       0.01569691
O        0.20418848       6.46731726       0.67249062      -0.04130857       0.00016564      -0.01597923
Eu       0.70522536       6.80520592       6.33654786       0.03306283      -0.01231673       0.01064132
Fe       3.14785898       4.43377366       4.64248009      -0.00296352       0.00104455      -0.00160144
Fe       3.13803827       0.36863119       0.58448023       0.00006402       0.00150381      -0.00132904
O        0.20297718       4.52475097       2.61718396      -0.04469045      -0.01355519       0.00204793
O        2.46599978       0.50371871       2.41711931       0.04580465      -0.01175770       0.01608075
O        0.20027870       4.35210636       6.66593954      -0.04528663       0.01721892       0.00056788
O        0.19669186       2.39745453       0.49355651      -0.04149136       0.00026712       0.01466322
Fe       0.16699504       4.43236731       0.58337203      -0.03459813       0.00163260      -0.00199888
O        2.47380638       6.26620284       4.77398316       0.04461267       0.02059475      -0.00674759
