20
Lattice="5.4255516061545555 0.031680637178537106 1.610562537739186 2.449454027107958 4.841811342395044 1.601394350501213 0.04345419455276583 0.041740661492631406 9.78266749231965" Properties=species:S:1:pos:R:3:forces:R:3 structure_index=0 total_energy=-173.4579620361328 stress="0.011483877897262573 -0.0001592167536728084 0.0009528261725790799 -0.00015742870164103806 0.011628633365035057 0.0005815631593577564 0.0009559727623127401 0.0005815165350213647 0.009173711761832237" pbc="T T T"
Eu       6.27937123       2.82291549       6.99083683       0.01336211       0.00821499      -0.04210722
Eu       4.16888005       1.52047487       4.18306200       0.00274762      -0.00196436      -0.00884250
Fe       1.75082144       3.34151145       2.34863283       0.00917926       0.00364715      -0.02983511
W        5.24232958       2.18542481      10.49321503      -0.00031807       0.00189973       0.00139825
Eu       2.87020980       4.05007776       8.50812905       0.00969832       0.00919294      -0.03963304
O        5.23882006       0.73039589       6.51687794      -0.01025470       0.00792339      -0.00489967
Eu       2.17343928       0.26796062       0.98689534       0.00019875      -0.00181386      -0.00110099
Fe       3.74097350       4.57985571       5.56527053       0.00453056       0.00069938      -0.01869313
O        1.25187988       1.22070071       7.96996958      -0.01429647      -0.01363516       0.01186210
Mn       3.26903034       0.96397906       7.22661533      -0.00129913       0.00073472       0.00575933
O        2.53756758       4.34117723       3.89318989      -0.00115986      -0.00347221       0.01125430
O        3.75739115       3.09943478      11.41739682       0.00870371       0.00119567       0.02342135
O        5.29155434       3.62815967       4.58100412      -0.00336710      -0.00783690       0.01019492
O        3.07348307       2.82235943       6.24358666      -0.00178717      -0.01144218      -0.00163299
O        4.08831496       2.00800928       8.94437827      -0.01206589       0.01408345       0.01462853
O        6.39415222       2.40441887      12.07977114      -0.00559634      -0.01787049       0.01672393
O        1.94606121       1.55719421       3.23140279       0.00018792      -0.00687414       0.00375450
O        4.93157308       4.77895879       7.16170072       0.01284485       0.00712160       0.00146601
O        4.61853866       0.43149123      11.15342672      -0.01933756       0.01101857       0.01945826
O        5.89501120       3.89938262       9.85898767       0.00802931      -0.00082231       0.02682310
