20
Lattice="5.462169647216797 0.0 0.16748084127902985 0.8501376877615595 7.13789044402675 1.1012392044067383 0.0 0.0 8.2815580368042" Properties=species:S:1:pos:R:3 pbc="T T T"
O        5.08237904       1.90679351       0.47813271
V        3.59362523       2.94120590       8.43721217
O        2.22019683       3.25473765       1.66873993
O        0.91396211       6.26188851       7.55056915
O        2.74502715       1.35299786       8.09047337
Y        5.19967049       6.82130225       9.39170746
V        2.69969324       4.80714799       2.30113805
V        4.12812252       3.73165699       5.19174152
O        3.39196147       0.33212060       2.28738945
O        3.96688951       2.18775483       4.50268281
O        5.69107885       4.32154114       5.28449348
O        4.08154387       4.82835802       1.22175334
O        0.28989842       0.21596877       3.59235131
Y        1.35299684       1.20807400       1.57976960
O        1.62623287       6.24578262       2.06537575
O        3.29967031       3.87993660       6.77020390
V        4.00714409       0.54160195       3.90501759
O        3.87784602       6.75319046       6.07127898
O        3.08907548       4.72275417       4.09316139
Y        1.91614891       5.64867559       5.89831439
