20
Lattice="5.574146225696276 0.05979351088909137 0.19928759870932375 0.9502698346469786 7.070337406434261 1.161443788071559 0.046334587451970985 0.05482372191880028 8.343189745519188" Properties=species:S:1:pos:R:3:forces:R:3 structure_index=0 total_energy=-162.51419067382812 stress="-0.002293603727594018 0.0002445317222736776 0.0002853591868188232 0.00024647917598485947 -0.0016723871231079102 0.0005002968246117234 0.0002876415674109012 0.0005002240068279207 -0.002505255164578557" pbc="T T T"
O        5.18295896       2.07130772       0.60243768      -0.00343025       0.00632054       0.00409269
V        3.74433268       3.01933274       8.62512228      -0.00319874       0.00755066       0.00085804
O        2.32869635       3.20990016       1.67290274       0.00171179       0.00479680       0.00476669
O        1.03021345       6.59211097       7.62110548       0.00701622       0.04624741      -0.01716292
O        2.80987354       1.43452452       8.19338943      -0.00368197       0.00296506       0.00000972
Y        5.35129122       6.88498061       9.41166703       0.00272246       0.01200531      -0.01415315
V        2.78332484       4.84340755       2.42642713       0.00311505       0.01023321      -0.00083619
V        4.44824259       3.79153563       5.34354541      -0.00117707      -0.00087331       0.00746704
O        3.39242806       0.37841088       2.34410711      -0.00549883       0.00226536       0.00462949
O        3.99823782       2.16419180       4.53861378      -0.00338694      -0.01855236       0.02992760
O        6.09870480       4.19049389       5.44423141       0.00528908      -0.02380770       0.02216347
O        4.14532746       4.85965490       1.19662430      -0.00165653       0.01122301      -0.00928053
O        0.29298794       0.21318830       3.50917369       0.00148952      -0.00825762      -0.01039337
Y        1.36906043       1.20084985       1.57856975      -0.00219304       0.00484241      -0.00093020
O        1.62853752       6.17603181       2.11635688      -0.00325376       0.00247836      -0.01193193
O        3.47519839       3.89690484       6.93939999      -0.00926465       0.00061148       0.00352180
V        4.11976083       0.53650175       3.92256518       0.00197437      -0.01066530       0.00278288
O        4.20640154       6.53308883       6.10095667       0.01373923      -0.03700525      -0.01092416
O        3.28740111       4.73598609       4.17594427       0.00237651      -0.01182845      -0.00422329
Y        2.04326277       5.66148640       6.12083406      -0.00269148      -0.00054964      -0.00038379
