12
Lattice="4.828766345977783 0.0 1.4504526853561401 2.1954832158817643 4.299725322594274 1.450147032737732 0.0 0.0 8.767505645751953" Properties=species:S:1:pos:R:3 pbc="T T T"
Ni       1.31323390       1.35368652       1.19255562
Fe       4.40162785       0.28788375       4.06576943
Ni       6.00003451       4.22319571       3.12110739
Dy       2.66423768       2.18081685       5.46597192
Fe       5.49705421       2.43751691       4.78932090
Fe       0.71580171       0.98928001       7.56573786
Fe       1.98387225       0.28735770       3.34043672
Fe       4.97346951       0.63911966       6.53899773
Dy       4.64818758       3.39552654       7.62175968
Fe       1.81462353       3.13982906       8.29075359
Fe       3.13137568       0.98859150       8.29151667
Dy       3.65523074       2.78818028       2.15687165
