4
Lattice="3.1836864581813 -0.015530463980231862 1.795715517485221 0.012879423149106149 4.213492923945011 0.01229937208688281 0.003819917447455381 -0.0110494744593357 3.7184033504570366" Properties=species:S:1:pos:R:3:forces:R:3 structure_index=0 total_energy=-30.437164306640625 stress="0.12047956883907318 -0.01022625807672739 0.032936617732048035 -0.010228043422102928 -0.1419001817703247 -0.008529527112841606 0.03293353691697121 -0.008531083352863789 0.0754564106464386" pbc="T T T"
O        1.63954630       0.33249610       1.23836027       0.00311396      -0.02942992       0.03804555
O        2.69729760       2.42831022       3.11102853      -0.00510986       0.00922833      -0.00362400
Li       2.69887372       0.31472973       3.09008902      -0.00267868       0.02324412       0.00242689
Zr       1.65391772       2.43706175       1.24279741       0.00467440      -0.00304257      -0.03684820
