18
Lattice="5.813108921051025 0.0 2.018700122833252 0.775155218203665 5.9862737039205 -2.6441140174865723 0.0 0.0 9.304106712341309" Properties=species:S:1:pos:R:3 pbc="T T T"
K        5.23989665       0.00174422       8.62772324
K        4.05698598       0.98017833       2.55148751
O        1.11635365       5.10528910       6.54039608
O        0.58147690       1.86917589       8.37627812
K        5.04429802       3.47996874       8.91525277
O        5.61266940       3.97204859       4.17171420
K        2.72785343       2.61828023       6.43172633
O        3.96600225       4.98399521       1.64291722
K        1.69003320       4.30671327       0.12880073
Sn       3.79089655       4.52932400       3.46434220
O        3.67020460       5.11761831       7.45244986
O        5.49635751       1.97697310       6.70723175
Sn       0.66486925       2.40805437       3.13673975
O        0.94109492       0.99426393       1.87849147
Sn       1.72443868       0.47941324       9.22513919
O        3.11963060       1.83204146       9.26009800
O        3.11498616       5.93628145       4.57297475
O        2.52813275       2.97708345       3.67906997
