12
Lattice="4.679840564727783 0.0 2.220018148422241 1.7945555612427593 4.329037937650115 2.213686227798462 0.0 0.0 6.03249979019165" Properties=species:S:1:pos:R:3 pbc="T T T"
Mn       1.87091351       1.72111567       5.68078637
Mn       2.97760809       2.45813063       3.34368765
O        5.46989916       2.09060141       5.95733980
Ni       4.40143783       0.28276686       6.39954206
Ni       4.05659270       3.18498834       7.10005106
Ni       0.79009474       0.99620803       1.92448101
O        2.51282454       4.25131778       8.25111730
O        3.04498572       3.60224499       5.28452431
Ni       5.12333922       3.89607444       4.84374687
O        3.42760460       0.58597788       4.51317258
O        2.92435556       1.33715363       7.52737061
O        5.07480728       2.83754811       9.02395277
