6
Lattice="3.6209022998809814 0.0 2.093871593475342 1.2080331330594158 3.4149565870221643 2.0936150550842285 0.0 0.0 4.181461811065674" Properties=species:S:1:pos:R:3 pbc="T T T"
Be       0.52669106       1.44979701       1.98122262
Be       0.52684832       1.45086014       4.07487391
Be       2.33950908       1.45078717       3.02983228
Fe       2.33790338       0.17221973       5.12219060
Be       1.13145096       3.16074334       3.02987685
Ni       2.33793045       2.73164167       5.12000783
