15
Lattice="5.244018020091709 -0.1561164004782895 0.2817173073579322 -0.3012558841706771 6.157405526598718 -2.217950582855404 0.38914780124919063 -0.12053181967836965 7.540220839781799" Properties=species:S:1:pos:R:3:forces:R:3 structure_index=0 total_energy=-126.8336181640625 stress="0.011945587582886219 0.0021658968180418015 -0.0011909095337614417 0.0021670646965503693 0.010564745403826237 -0.00112525827717036 -0.0011896078940480947 -0.0011300814803689718 0.012105531990528107" pbc="T T T"
Mn       3.01937804       4.12371744       4.11385961       0.00781253       0.00200392      -0.00222287
Mn       1.20190952       1.63348923       6.33118116      -0.00964119       0.00396124      -0.00275666
O        4.77390342       3.81125636       3.01638932       0.03199267      -0.00986993       0.03060752
Eu       0.52629620       1.57787258       2.66953274      -0.00279063      -0.01700617       0.00728229
P        0.53098386       4.94976235       2.05745632       0.01072836      -0.00404599       0.01047757
O        3.60823899       5.61132438       5.45973670       0.00725079       0.00675702      -0.00427711
P        3.33051920       0.92362677       0.85164071      -0.00814124       0.00228667      -0.00818238
O        4.39741460       1.95517377       0.36928759      -0.01833415       0.00986123      -0.01033956
O        0.73131876       0.23804922       4.85397432       0.00194266      -0.00621462       0.00414419
O        2.42567060       3.00133923       5.61847147      -0.01039547       0.00825227      -0.00331551
O        0.29914570       5.06613402       0.52728853      -0.01672632      -0.01352189       0.02244663
O        3.47173483       0.69347874       2.38544016      -0.00711464       0.00622919      -0.01289940
O        1.94775045       4.32606272       2.30246902       0.03136778       0.02270973      -0.01322013
O        1.91382606       1.53189835       0.60574363      -0.02033496      -0.01807928      -0.00506958
Eu       3.05587656       4.14277137      -0.02007824       0.00238448       0.00667581      -0.01267484
