8
Lattice="5.494609832763672 0.0 0.01658659055829048 -0.00953596912865753 5.927713353262192 -3.4172935485839844 0.0 0.0 6.8259663581848145" Properties=species:S:1:pos:R:3 pbc="T T T"
Ce       3.99934911       1.53502833       4.99502286
Ce       4.00116279       4.50185431      -0.12563528
Ce       1.24820580       0.55155299      -0.14281899
Ce       1.24817129       3.51852903       1.55717601
Ce       1.25403475       3.51345148      -1.85497853
Mg       1.25222928       0.54488122       3.27220154
Mg       3.99712527       4.51552493       3.27677231
Ce       3.99812455       1.53911394       1.58690548
