8
Lattice="5.534617099037825 0.0073287181920858166 0.007110178900869042 0.004141771163947605 5.881116428215051 -3.3997572893217547 -0.011664540748646488 -0.00045555649440151937 6.790180409553741" Properties=species:S:1:pos:R:3:forces:R:3 structure_index=0 total_energy=-37.932735443115234 stress="-0.01469582598656416 0.0003466685302555561 -0.0007110171136446297 0.0003466287162154913 -0.028758257627487183 0.0003874149697367102 -0.0007110231672413647 0.0003874115936923772 -0.028627345338463783" pbc="T T T"
Ce       4.02179801       1.53821699       4.97060550       0.00056173       0.02667555       0.02945231
Ce       4.03484885       4.45834820      -0.13549202      -0.00397309      -0.04030160      -0.00701888
Ce       1.26006749       0.56278564      -0.14315089       0.00422560       0.04212855       0.00293936
Ce       1.26035133       3.48337803       1.53830025       0.00186047      -0.02500993      -0.02704232
Ce       1.27014469       3.48125996      -1.83579636      -0.00292162      -0.01801441       0.03947094
Mg       1.25808783       0.54543230       3.25266654       0.00248300       0.00614166       0.00148596
Mg       4.02520925       4.47835872       3.25607984      -0.00213587      -0.01262170       0.00465981
Ce       4.02639933       1.53964912       1.55832834      -0.00010024       0.02100190      -0.04394719
