10
Lattice="5.344378596802378 0.004058938459787498 -0.056362416647677396 -2.698755213099402 3.9149213921899775 -2.484420569734257 0.03929537457550759 -0.023506198679010135 5.666907193397288" Properties=species:S:1:pos:R:3:forces:R:3 structure_index=0 total_energy=-72.73210906982422 stress="-0.05140656232833862 -0.005835772026330233 -0.00928956177085638 -0.005830441135913134 -0.03311881795525551 0.00039709487464278936 -0.009294265881180763 0.0003921136085409671 -0.04010934382677078" pbc="T T T"
Fe       3.44608669       1.16828745       1.01957402      -0.03572420      -0.01342116       0.01883031
Fe       0.78038869       1.15818354       3.89599817       0.01191738      -0.01056456      -0.01811147
W       -1.92764900       3.46621942      -1.06632691      -0.02579468      -0.00164598       0.00259697
Mn       0.77121480       3.37201752       1.63080893      -0.00481499       0.01549973      -0.00980740
O        1.53131657       1.38134353       1.75451838      -0.02318816       0.02775264       0.00390992
O       -0.24335209       3.01566785       3.69573826       0.02427423       0.00013044      -0.01097858
O        5.14394464       0.19231169      -0.18665553       0.02254999       0.01296413      -0.00338542
O       -1.12168581       3.04759876       0.72171560       0.01444767       0.00389213       0.02457982
O        2.67192557       1.68739222      -1.11194709       0.02410775      -0.01640534      -0.00143547
O        4.59148375       0.25357103       2.48428934      -0.00777501      -0.01820247      -0.00619817
