15
Lattice="2.9871606413542566 -0.00175442871312739 -0.3873578718905409 -0.1196543994116371 5.941347557992949 -0.3243739045589158 0.009736113903653741 0.36369979697774396 10.13968278607237" Properties=species:S:1:pos:R:3:forces:R:3 structure_index=0 total_energy=-97.25923919677734 stress="0.003609495237469673 -0.0008273373823612928 7.6118690230941866e-06 -0.0008280084002763033 0.00520871439948678 -0.0019105924293398857 9.251730261894409e-06 -0.001910436782054603 0.004200257360935211" pbc="T T T"
O        1.41619416       0.54746011       7.90218172      -0.01339804      -0.00076100       0.00801968
Cr       0.28514826       4.94173506       1.52084198      -0.01957498       0.01019141       0.00460762
Li       0.84940307       0.58622679       4.19930858       0.01908080      -0.01581290      -0.00308532
Cr       0.09452381       0.56118163       9.46061595      -0.01428349       0.01016473       0.00321083
Fe      -0.04123661       3.53778396       8.84481274      -0.00383038       0.01268601      -0.00601864
Fe       1.15564381       4.77028219       6.65856592      -0.00220295       0.00279647       0.00201303
O        1.86663979       3.80302654       2.01132708      -0.01778089       0.00929910       0.00869497
O        1.64514334       6.06210030       0.31547662      -0.01782238       0.00843059      -0.00037733
O        0.23347506       2.28097079       0.50114680      -0.01091266       0.01521178       0.00310349
Li       2.95703967       1.42102351       6.41731917       0.03546297       0.00884368      -0.00672822
Al       1.87085666       1.99335759       1.33579544      -0.00921131       0.01058065       0.00080881
Cr       1.83511412       3.23674580       3.96768878       0.00570133      -0.01144922       0.00085209
O        2.22559910       1.41773742       3.00084110       0.02179076      -0.00264897      -0.01139003
O        0.71415498       4.74054869       4.83420735      -0.00587088      -0.02583811       0.01131225
F        1.35072012       1.96924020       5.57332742       0.03285237      -0.03169382      -0.01502326
