12
Lattice="4.629561259002718 0.001984689789984213 -0.0014009707728726876 -0.003522917703945059 8.271805671772597 -0.009377414119063308 0.0028707131548626453 0.0111304470698191 9.83361453561475" Properties=species:S:1:pos:R:3:forces:R:3 structure_index=0 total_energy=-102.3525619506836 stress="0.0002803695679176599 1.3035090887569822e-05 2.150202271877788e-05 1.2945899470651057e-05 0.010456250049173832 -6.281487731030211e-05 2.167517777706962e-05 -6.295435014180839e-05 0.006721280049532652" pbc="T T T"
Eu       1.82587256       4.27492719       6.46745241      -0.00009621      -0.00510607       0.00382883
Eu       4.13717683       7.99648309       1.54526044       0.00010322       0.00484197       0.00412814
Eu       1.82752007       0.14072464       8.09789374       0.00020400      -0.00498850      -0.00364015
Eu       4.13993359       3.86286403       3.17626719      -0.00018397       0.00410511      -0.00330708
Eu       1.82672719       1.13451638       4.15946305      -0.00021622       0.00963669       0.01908421
Au       4.13983999       6.10290449       8.49515315       0.00015596      -0.02018758      -0.04365144
Eu       1.82320966       5.26607372       0.57028388       0.00007590       0.00982457      -0.02002073
Eu       4.13917370       7.00262645       5.48407554      -0.00002061      -0.00895862      -0.01905872
Eu       4.14140795       2.87064467       9.07385859       0.00017601      -0.00878061       0.01868104
Au       1.82423921       6.17313875       3.57883089      -0.00009697       0.01997665      -0.04371934
Au       1.82457995       2.03448757       1.14850196       0.00023263       0.01967367       0.04407676
Au       4.14188361       1.96429963       6.06487199      -0.00033370      -0.02003724       0.04359848
