9
Lattice="4.517662525177002 0.0 0.07538296282291412 -2.157385351704151 5.75894680138243 -0.8427080512046814 0.0 0.0 8.37929630279541" Properties=species:S:1:pos:R:3 pbc="T T T"
Sb       0.99661649       1.84277729       4.79313547
Pd       3.27358644       2.73551274       6.27166355
Ba       1.06382415       5.24102756       5.87763042
Pd      -1.20369034       5.11228516      -0.38737183
Pd       3.27456149       2.69334634       3.54796881
Pd       0.99517298       1.97769769       7.66948189
Ba       1.05678459       5.10901870       1.98971263
Pd       0.99176425       1.76438924       2.05095298
Sb       3.26945162       2.61456457       0.66879715
