3
Lattice="3.350562310780949 0.0046295783822887255 -0.7896307544432919 -1.7767396714692323 2.948870679272164 -0.026482336766454645 0.08082654108502726 0.046513174057409484 7.470953602885811" Properties=species:S:1:pos:R:3:forces:R:3 structure_index=0 total_energy=-18.82461929321289 stress="-0.044203370809555054 0.0041237156838178635 -0.014548311941325665 0.004123935010284185 -0.016308285295963287 -0.012564647011458874 -0.014548315666615963 -0.012563969939947128 -0.06818324327468872" pbc="T T T"
Mo       1.25576447       0.64572360       4.13253434      -0.01542024       0.01777008       0.02318999
Te      -0.03310234       1.89884642       6.18027595       0.00422126      -0.01142766      -0.03415421
Se       2.52802927       1.39741717       2.03546565       0.01119900      -0.00634237       0.01096421
