10
Lattice="6.76016902923584 0.0 3.9167227745056152 2.2468701566731397 6.370179377445284 3.9468917846679688 0.0 0.0 7.8241868019104" Properties=species:S:1:pos:R:3 pbc="T T T"
Cs       4.06522334       5.01839855      10.09500987
Mo       4.06451287       0.23817513      10.06911734
Br       2.99076785       1.74854047       8.21121376
Br       6.20749970       1.75503719      10.08186460
Br       2.97696998       1.75551333       4.10222817
Ag       1.80691255       3.42196337       6.16944573
Br       7.40342626       5.08992346      12.15537574
Br       4.17516420       5.08311672       6.18282191
Br       6.31627750       1.83128776       6.16177265
Br       7.38380723       5.08901296       8.04445987
