10
Lattice="6.682874369147676 -0.0016258243612788368 3.8702536162929864 2.2285102956716805 6.29393482148945 3.8847682066372835 0.002153803734262975 -0.01724435762111661 7.727640920709952" Properties=species:S:1:pos:R:3:forces:R:3 structure_index=0 total_energy=-31.63115119934082 stress="-0.01910805143415928 -0.0006355458172038198 0.0003303169214632362 -0.0006350944167934358 -0.019982608035206795 0.001965878764167428 0.00033102798624895513 0.0019656673539429903 -0.01812315732240677" pbc="T T T"
Cs       4.02625143       4.94486703       9.96075142       0.00012053      -0.00203480       0.00052272
Mo       4.02060437       0.21608706       9.94380110       0.00098599      -0.00153627       0.00124544
Br       2.97504900       1.69416435       8.13038695       0.00746630      -0.00628310       0.00430921
Br       6.11184384       1.70076067       9.95549549      -0.01028588      -0.00396699       0.00027934
Br       2.96058438       1.71033076       4.02587990       0.01037335      -0.01012567      -0.00384787
Ag       1.79151628       3.37326152       6.08683345       0.00058345       0.00063169       0.00059429
Br       7.31068266       5.03551637      12.01926816      -0.00881660       0.00751224       0.00176203
Br       4.16087601       5.03802061       6.09540394       0.00585482       0.00724953      -0.00358524
Br       6.24582801       1.80336558       6.08331042      -0.00324603      -0.00364974      -0.00040971
Br       7.29244579       5.04420953       7.91396755      -0.00303587       0.01220307      -0.00087035
