7
Lattice="4.612914460664262 0.008213154471043246 -1.3259323613748053 -0.38839450896530947 4.596134136570627 -1.3275396280933083 -0.01820400933121502 -0.018190818536605743 8.616305032100609" Properties=species:S:1:pos:R:3:forces:R:3 structure_index=0 total_energy=-63.7348518371582 stress="0.035397008061409 0.010591387748718262 0.0002794162428472191 0.010591316968202591 0.03810616955161095 0.000847550283651799 0.0002788119309116155 0.0008468118612654507 0.006020823959261179" pbc="T T T"
O        2.67251305       2.32486891       4.70650801      -0.00473558      -0.00340552      -0.01281519
Ge       1.10885539       0.62166901       7.94307822      -0.00107783      -0.00179656       0.00173787
Eu       1.93315322       1.51839598       2.13460850       0.00426755       0.00507343       0.01093477
Eu       2.85999314       0.01973349       5.34722213       0.00045297      -0.00142712       0.00206864
Eu       0.35938384       2.31335697       5.34688646       0.00097641       0.00162615       0.00025895
Eu       3.41372175       3.13261523      -1.39260017      -0.00085773      -0.00187394      -0.00062521
Ge       4.22284916       4.01353937       1.42430805       0.00097417       0.00180352      -0.00155991
