11
Lattice="3.9964406490325928 0.0 -1.21122145652771 0.08795081566502798 4.631198288972461 0.265434592962265 0.0 0.0 7.171627521514893" Properties=species:S:1:pos:R:3 pbc="T T T"
Ge       0.93293941       2.22621751       2.05082437
Fe       1.37634429       4.41964273       3.49963841
Fe       0.23125092       2.73196934       6.92512391
Fe       1.69322020       1.92591355       4.55983442
Fe       2.83600082       3.61419450       1.13682560
Ge       2.13569199       4.11515357       6.00370489
Fe       3.84171199       0.70513862       4.45007835
Ge       3.53179806       3.17671848       3.42153287
Fe       2.42571012       1.56675476      -0.20811206
Fe       0.55369553       0.13696796       0.82613636
Fe       3.13587334       1.01241337       2.13210270
