8
Lattice="3.552528734660086 -0.00940089064582433 -0.8159389826278435 0.01654786646121402 5.494176402120354 0.008439925145498349 -0.18011898612678548 -0.04434618238155815 7.358953315771085" Properties=species:S:1:pos:R:3:forces:R:3 structure_index=0 total_energy=-37.92970275878906 stress="0.010781411081552505 3.7262503610691056e-05 0.000753168947994709 3.739622843568213e-05 -0.0003997163148596883 -3.775978257181123e-05 0.0007536954944953322 -3.5837529139826074e-05 0.014173274859786034" pbc="T T T"
F        1.16234930       4.29786842       1.56746879      -0.00924440      -0.02829427      -0.03743502
O       -0.06006115       3.76904003       4.39595420      -0.00069223       0.01330154      -0.00325708
F        2.22196767       4.58056082       6.18028547      -0.00264852       0.00760522      -0.00959647
F        0.57141304       1.53440417       7.17275911       0.00917964      -0.03189875       0.03926623
Bi       0.23566023       0.09009230       5.72619553      -0.00036957       0.00763907      -0.00176325
Bi       1.48737091       2.83927580       3.00244509       0.00035384       0.00807577       0.00089037
O        1.78997579       1.01531486       4.34133921       0.00127013       0.01467706       0.00363511
F        3.06555330       1.83472310       1.74367333       0.00215119       0.00889453       0.00826004
