10
Lattice="5.6839352927983 -0.060589185453629645 -0.11878017726616479 3.89022228324489 6.086722303812466 -1.763520459902135 -0.03948710151467538 -0.1015602253052974 4.65502776158237" Properties=species:S:1:pos:R:3:forces:R:3 structure_index=0 total_energy=-72.54280090332031 stress="-0.01112354826182127 0.0020819997880607843 0.0017619275022298098 0.002080384874716401 -0.007023152429610491 -0.0007676120731048286 0.0017607681220397353 -0.0007681504939682782 -0.009493221528828144" pbc="T T T"
O        8.58980781       5.78862238       0.04456314       0.00524047      -0.01578157       0.03552213
Ge       5.06048677       0.68195968       3.33587588       0.01180004       0.01605985       0.00109922
Ge       6.24446417       3.46332569       1.64350654      -0.01415297       0.00356049      -0.01001053
O        3.21468253       1.05797950       3.70556873       0.02925735       0.00300217       0.02694653
O        1.86266678       2.56518355       1.01421681      -0.01047847       0.00471699       0.00289159
Nd       3.33166382       3.59889440      -0.54733848      -0.00420359      -0.00638881      -0.00712293
O        7.16229156       4.37041361       2.84390295      -0.02242082      -0.00458771       0.00224498
O        5.37526495       4.45842434       0.46017519       0.00591370       0.00845182      -0.01628771
O        4.91741036       2.55134469       2.42019818      -0.01858538      -0.01690015      -0.04441044
Nd       2.58631121       0.28971480       1.26760825       0.01762968       0.00786752       0.00912714
