10
Lattice="5.03409481048584 0.0 -1.5747698545455933 -3.0811034008735305 4.273277788579502 -0.025494283065199852 0.0 0.0 7.762224197387695" Properties=species:S:1:pos:R:3 pbc="T T T"
Gd       2.31200189       1.81477877       5.64712155
Co      -0.16340394       1.76422729       2.48097100
Co      -0.60773072       3.08946620       5.49193472
Co      -1.38708758       4.16573378       3.50709470
Co       1.14716358       4.24454783      -1.07595212
Co       1.88400397       3.09693854       0.83079593
Gd       4.48793017       0.07911398       3.66418952
Gd       2.11858080       0.10854607       0.81295583
Co       0.12118773       1.99279924      -0.23573418
Co       2.65675074       1.99582937       2.75295432
