8
Lattice="3.6954360008239746 0.0 -0.9461548328399658 -0.2449607616468512 3.7056555228296233 -0.9568189978599548 0.0 0.0 7.696139335632324" Properties=species:S:1:pos:R:3 pbc="T T T"
Mn       0.86598767       1.50124052       2.52390017
Ni       2.59041182       3.35414027       1.57158641
Mn       1.73016932       2.42818384       5.90090863
Ni       3.14073543       1.95942200       3.71723412
Mn      -0.00030412       0.57116564       6.84003488
Ni       2.28711009       1.04104357       0.38498911
Pt       0.31058612       2.88807034       0.35306874
Pt       1.42129384       0.11201766       4.69335102
