6
Lattice="4.12435246290956 -0.000928720472645933 0.0003285849692787688 0.0011388468158717569 4.196540855793559 -2.4236511846973143 -0.00039159296824517524 0.00022054993518321606 4.845876772715515" Properties=species:S:1:pos:R:3:forces:R:3 structure_index=0 total_energy=-48.1754264831543 stress="0.07975484430789948 -0.0017407317645847797 -0.0006506654317490757 -0.0017407371196895838 -0.08201570063829422 -0.0022181819658726454 -0.0006500812014564872 -0.002217578701674938 -0.08457573503255844" pbc="T T T"
Gd       2.08146831       0.35120427       3.38148171      -0.00112564      -0.00014709      -0.00883828
Co       2.08145317       1.75005362       0.95773628       0.00272553      -0.00236413       0.00221262
Co       0.01894305       0.35044808       0.95729789       0.00357919      -0.02383225       0.00343534
Co       0.01986086       2.44927444       2.16922649      -0.00201867       0.01546096       0.02626768
Co       0.01987875       2.44996450      -0.25372302      -0.00017665       0.01444127      -0.03081438
Ni       2.08248665       3.14898765      -1.46643285      -0.00298374      -0.00355872       0.00773695
