14
Lattice="3.1171681412712076 -0.23570684153000113 0.41108143974840927 -0.5841466548193723 5.013486737778701 -1.6374191395681106 1.34804617923827 -0.03381414479966786 10.669496634446089" Properties=species:S:1:pos:R:3:forces:R:3 structure_index=0 total_energy=-102.46430206298828 stress="-0.01351877860724926 0.0031945507507771254 -0.0014940148685127497 0.0031943731009960175 -0.01806650497019291 -0.0037115442100912333 -0.0014970825286582112 -0.0037100082263350487 -0.021811289712786674" pbc="T T T"
O        2.66211411       1.39578893       7.47187433       0.00428411       0.00583702       0.00306830
Mn       2.85935232       2.85249517       8.77150388      -0.04743681       0.00390330       0.01583201
O        0.77407320       1.49014603       1.87971358      -0.00073460      -0.00286969       0.00162619
Mn       0.59841567       3.02967987       3.24743205      -0.00841667      -0.00696412       0.00626445
Mn       2.90792622       0.51163060       5.72680401       0.01162326       0.00753221      -0.00637868
O        3.70391341       1.50432966       9.97020653       0.03950763       0.03201786      -0.01250601
O        1.69647911       4.20681146       7.73365232       0.01730628       0.01867858       0.00317164
O        0.43617540       4.55250055       4.55945966       0.00230098      -0.00503744      -0.00484537
Mn       0.78891291       0.60644364       0.12554061       0.01036841      -0.00401911      -0.00107160
O        1.90886582       1.64630239       4.36474348      -0.02434827      -0.01933816       0.01595354
Mn       1.96820904       0.29438248       2.87940498      -0.01772928      -0.01442063       0.00510005
Mg       4.02949295       0.11219085       8.43175139       0.00040540      -0.00614255      -0.00578507
O        1.71286454       4.36708902      -0.49321281      -0.00122899      -0.00281072      -0.00786148
O        2.43094746       4.20920072       2.52491798       0.01409830      -0.00636646      -0.01256771
