16
Lattice="5.792648173924131 0.0283383232342956 2.6085634954863797 -0.3858156113014678 8.139403575476683 0.8999925549142157 0.03311775903380136 0.19020565128155012 7.552788761869831" Properties=species:S:1:pos:R:3:forces:R:3 structure_index=0 total_energy=-87.48402404785156 stress="0.005194632802158594 -0.0002603689208626747 -0.0010654105572029948 -0.0002613763208501041 0.01507705170661211 0.0013988778227940202 -0.0010664684232324362 0.0013977558119222522 0.005329896230250597" pbc="T T T"
O        1.17915555       2.90566017       5.78417606      -0.01622474       0.01400039       0.01821014
Cs      -0.15551172       8.14322716       6.10383526       0.01584980       0.00824846       0.01350207
Ge      -0.11979482       4.07532483       5.52592029      -0.01225372       0.01564286       0.00343769
O        5.18175932       0.26293896       3.59227319       0.00678179       0.00620306       0.01985377
O        4.25078976       2.25177009       3.63100248       0.00749042       0.00476247      -0.02916578
O        2.99511243       0.44824890       3.60836227       0.01745212       0.01416463      -0.02427637
O        5.05056436       5.03891228       9.49522021      -0.01014994       0.04533914      -0.01599196
O        2.43863665       6.06956119       7.43907625      -0.03489679      -0.01667473      -0.00856984
N        2.16701608       6.62900547       8.53982496       0.00636895      -0.02602539       0.00450167
O        4.69057980       2.83707199       7.38832452      -0.00476077       0.00510710       0.02122647
O        0.22611195       5.52404762       4.58158864      -0.01987225       0.00039339      -0.00866818
Cs       1.80852884       2.53336664       1.29407010      -0.00347446      -0.02728549       0.00683887
O        1.72691917       5.74759711       1.96209618       0.02829061      -0.02815601       0.00096574
O        2.30887854       7.88160838       8.65172004       0.02449661      -0.03710002       0.01900389
Cs       3.69665090       5.30193875       4.70348661      -0.01598773       0.01095770      -0.00897818
N        4.13951132       0.99073966       3.61881901       0.01088963       0.01042230      -0.01189005
