6
Lattice="3.9533692860004384 0.08142483713278051 -0.07465561551557351 -2.0499707997977263 3.3832138913204077 -0.06914331859881245 0.1835747430010627 0.32057016924205944 10.065625987998718" Properties=species:S:1:pos:R:3:forces:R:3 structure_index=0 total_energy=-30.30272674560547 stress="-0.04772164300084114 -0.00093683140585199 0.0009326334111392498 -0.0009371353080496192 -0.03363993763923645 0.004904558416455984 0.0009318878874182701 0.004905697423964739 -0.004696944262832403" pbc="T T T"
Se       0.55906467       1.08531332       7.83219288       0.00307464      -0.00029079       0.00070107
Er       0.48105302       3.31717189       6.12635850      -0.00683021      -0.00714709       0.01500192
Er       2.54122193       2.31807439       9.39453428       0.00336694       0.00592726      -0.01857996
Mg       0.46624824       0.92393871       2.79938885       0.00311657       0.00153013      -0.00048454
Se       2.44531253       2.15467498       4.26997911       0.00798164       0.00636467       0.02942397
Se       0.39290784       3.15901832       1.18418401      -0.01070969      -0.00638411      -0.02606255
