7
Lattice="5.375202178955078 0.0 0.0032818098552525043 0.01567746000948966 5.377796686543173 0.00217432901263237 0.0 0.0 5.535987377166748" Properties=species:S:1:pos:R:3 pbc="T T T"
Eu       4.66213212       4.42571519       2.90760798
P        4.66528536       4.42252388       0.13983057
Fe       1.96973517       4.42373873       0.13813816
Fe       4.65566029       1.73312357       0.13772634
Cl       4.65227097       1.73599866       2.90533697
Cl       1.96466780       1.73830640       0.13205602
Cl       1.97629360       4.42081026       2.90577975
