4
Lattice="2.6611081130344245 0.004318853500509601 0.5347776343246047 1.2699195981597382 2.3384330732365073 0.5354119294918035 0.005487760011312077 0.002676307780575368 6.801354648114253" Properties=species:S:1:pos:R:3:forces:R:3 structure_index=0 total_energy=-29.073043823242188 stress="0.12231282144784927 -0.04651438817381859 -0.021041264757514 -0.04651463404297829 0.1675342172384262 -0.007548521738499403 -0.02104160562157631 -0.007549128495156765 -0.05121155083179474" pbc="T T T"
Fe       1.26879678       2.18981602       2.08050166      -0.01242084      -0.00816905       0.04181808
Fe       2.17362922       1.14627728       4.43287353       0.00509218       0.00382807      -0.00743827
H        1.08499830       0.49842519       2.99380857       0.00178415       0.00062158      -0.00765427
Ir       3.05235305       1.66973729       6.93461315       0.00554448       0.00371940      -0.02672556
