20
Lattice="5.629155366039289 -0.11329008599546675 -0.3934914947859648 1.7298158943928061 3.9710891547268097 -0.019171553442428647 -0.3999634425995901 0.2121659878628457 10.95154152590546" Properties=species:S:1:pos:R:3:forces:R:3 structure_index=0 total_energy=-132.40725708007812 stress="-0.010930277407169342 -0.0007494481396861374 0.002443435601890087 -0.0007514865719713271 -0.012585935182869434 -0.0015386088052764535 0.002441966440528631 -0.0015393579378724098 -0.01269385777413845" pbc="T T T"
Na       2.64192032       3.05026197       2.65104579      -0.03858576       0.01382047       0.01933901
Fe       2.63726583       3.01923747      10.14259824       0.01998842      -0.00369535      -0.00421247
Ti       4.80602821       2.07266156       8.68600174       0.03204346      -0.01425387       0.00007944
Fe       1.88507820       0.97853967       8.21507858       0.02392820      -0.00925188       0.00280893
Fe       4.34685870      -0.12403653      -0.18769679       0.01636614      -0.00618418      -0.00039869
V        5.39849093       1.79125912       1.90426508      -0.04272757       0.01782355      -0.00079720
Ti       0.92111400       1.60329904       5.09144291      -0.01827192       0.00616229       0.00261962
Fe       3.67425359       2.56621241       5.87794312      -0.00519064       0.00142113      -0.00237611
O        2.39916825       0.71490019       6.04398336      -0.00923598       0.00329348      -0.00322010
Fe       0.91198817       1.41322846      10.87818300       0.03563976      -0.01063819       0.01437367
Fe       6.68409279       3.62129044       6.93460870       0.02115554      -0.00853124       0.00392863
Na       3.54424065       0.24916430       3.82859656      -0.03003666       0.01205935      -0.00495981
O        3.79487470       0.14498505       8.60429233       0.02566607      -0.01050375      -0.00116345
O        4.94230007       1.97931716      -0.22906517       0.03225827      -0.01313670      -0.00533932
O        1.44915812       1.20920053       3.41390216      -0.03210294       0.00957415      -0.00368571
O        4.76938974       2.06221405       4.15027746      -0.02401921       0.00971773      -0.00444266
O        1.66032710       3.34454359       5.36646890      -0.01118422       0.00494123      -0.00476211
O        6.15968978       3.82355286       1.74727243      -0.02992552       0.01237597      -0.00127706
O        2.96106801       2.86776367       7.95612499       0.02449467      -0.01026298      -0.00015408
O        5.60050299       1.71295517       6.85047417       0.00973955      -0.00473105      -0.00636059
