9
Lattice="4.842357635498047 0.0 -0.0008839875808916986 5.156235920715379e-05 4.848612785065186 -0.0013457953464239836 0.0 0.0 13.296868324279785" Properties=species:S:1:pos:R:3 pbc="T T T"
K        3.32934430       4.55867404       0.25621230
Eu       0.90701359       4.56199742       3.81525693
O        3.32814419       4.56139426       4.27213384
Sb       0.90717657       2.13676280       6.22984515
Eu       3.32899225       4.56266296       6.73662957
K        0.90937990       2.13892373      10.33796747
Sb       0.90668925       2.13539576       1.56064946
Sb       3.32851826       4.56235011       9.98545128
Eu       3.32831769       2.13731134       3.81638736
