8
Lattice="3.312129020690918 0.0 -0.44437527656555176 -0.42772683679684753 5.119805583742435 -0.8876315355300903 0.0 0.0 7.885946273803711" Properties=species:S:1:pos:R:3 pbc="T T T"
P        2.31493447       0.24768986       6.47205405
P        1.26135833       4.29057346       1.85323000
Rh       2.31226524       1.36209763       2.67361685
P        2.04016250       1.86698080       4.97211782
P        0.72098063       3.05469846       0.00971609
Rh       0.30020755       3.63807199       5.63084528
P       -0.23044480       3.54161387       3.32081154
P        2.47380330       1.60901864       0.33097657
