3
Lattice="3.272724270957711 0.31049716160587876 1.6062990868772336 1.1859419888491456 3.288095877340633 1.991593381682943 -0.20037658581883197 0.3281298739784613 3.635828930420845" Properties=species:S:1:pos:R:3:forces:R:3 structure_index=0 total_energy=-22.941450119018555 stress="-0.021885503083467484 0.07812091708183289 0.06205848231911659 0.07812551409006119 -0.07997241616249084 -0.08701495081186295 0.06206155940890312 -0.08701836317777634 -0.14088661968708038" pbc="T T T"
Tm       0.94598340       1.05540455       2.27101668      -0.00009828       0.00061074      -0.00022466
O        3.15412282       0.38420040       2.06894407       0.00003140       0.00063316      -0.00049625
O        2.01055360       2.03727845       4.07934514       0.00006697      -0.00124408       0.00072081
