12
Lattice="2.626919816783132 0.0016346054774648918 -0.0006127982403099639 -1.316520411181861 4.592064995097106 -0.7770468008058726 0.002985701315419753 -0.24555691239447697 10.881816571406326" Properties=species:S:1:pos:R:3:forces:R:3 structure_index=0 total_energy=-94.67007446289062 stress="0.03181176632642746 -3.0332559617818333e-05 -1.7044696960510919e-06 -3.088124867645092e-05 0.03483293205499649 0.004474773537367582 -2.007942839554744e-06 0.004474700894206762 0.044870346784591675" pbc="T T T"
Ni       1.97664798       0.75653822       4.58369003       0.00041776       0.03798464       0.03128007
Mn       0.66044225       3.88665995       1.84118166      -0.00012891      -0.00375853       0.01852245
Mn       0.66195236       3.85454103       7.64052848       0.00041293       0.00003818       0.00442292
Fe      -0.65240702       2.47513961       0.45742067      -0.00031269       0.00061597      -0.01435619
Mn       0.66229189       1.35644389       2.23644162      -0.00063283      -0.00220130       0.02081846
Ni      -0.65205429       4.27229077       5.65826640      -0.00018517       0.00266284      -0.00068112
Mn       1.97593241       0.04702508       0.40976207      -0.00019426      -0.01844440      -0.00397959
Fe       1.97694575       1.65746664       7.27400650      -0.00055738       0.00127137      -0.02331945
P        0.66262240       2.39287494       5.55499370      -0.00066851       0.02983588       0.00856230
P       -0.65061396       2.96170478       9.21900244       0.00058599      -0.03326603      -0.02286663
Fe      -0.65222818       3.02437086       3.57659402       0.00067256       0.01101510      -0.00463566
Mn       0.66412133       1.02009781       9.48162326       0.00059043      -0.02575364      -0.01376746
