7
Lattice="4.844518285134924 -0.017127230466883307 -1.6943105035646726 -2.381707929980582 4.2196951757588455 -1.6881358650968523 -0.011314467951330192 -0.025373367371509484 5.130189961289967" Properties=species:S:1:pos:R:3:forces:R:3 structure_index=0 total_energy=-67.337158203125 stress="0.008781039156019688 0.024854036048054695 0.008393734693527222 0.024851888418197632 0.03431478887796402 0.01463256124407053 0.008394492790102959 0.014633058570325375 -0.0010336110135540366" pbc="T T T"
O       -0.76562958       2.54380820       2.17124853       0.00218554      -0.00364698      -0.00257902
Eu       2.85219625       0.44154120      -0.39458239      -0.01697320       0.00097670      -0.00440976
Eu       1.66380473       2.54019315       1.33014756       0.00044968       0.00727519       0.00171647
O        1.65857983       2.55455873      -1.23607342      -0.00254161      -0.00124906       0.00092490
Eu      -0.75179493       2.55579987      -0.38977237       0.00734490      -0.00667408      -0.00069805
O        0.43491200       0.44646518       0.45098025       0.00088076      -0.00146817      -0.00210140
O        2.84680072       0.43140588       2.17454111       0.00865387       0.00478652       0.00714703
