8
Lattice="5.757216930389404 0.0 -0.028606729581952095 -0.056187131960636585 5.6760858557972105 0.0021691732108592987 0.0 0.0 5.714332580566406" Properties=species:S:1:pos:R:3 pbc="T T T"
Te       2.15610350       5.15951118       5.27094760
Mn       2.14165986       5.16410355       2.41654025
V        5.00647959       5.16431263       5.26101536
Te       5.05332080       2.32783427       5.24813748
Li       2.17103368       2.32639640       5.27063170
Li       5.04730639       2.31742362       2.38497391
Te       2.17617174       2.33061121       2.41778990
Te       5.02297208       5.16233379       2.40928402
