8
Lattice="5.735759445365379 0.028138435368839993 -0.014641389238864282 -0.028236489732537437 5.608853003308866 0.0009739252496944195 0.013965088194912609 -0.001073043782683273 5.735217277197509" Properties=species:S:1:pos:R:3:forces:R:3 structure_index=0 total_energy=-38.03895950317383 stress="0.0032867633271962404 -0.0017814051825553179 -0.0012795606162399054 -0.0017814452294260263 0.0064435601234436035 1.8570359316072427e-05 -0.0012793815694749355 1.870824235084001e-05 0.0034775040112435818" pbc="T T T"
Te       2.18136420       5.10944036       5.29571436      -0.04728562       0.01258203       0.01095606
Mn       2.16502818       5.11384680       2.42927099       0.00341065       0.00566987      -0.00270254
V        5.02990489       5.12723696       5.29229774       0.03988376       0.00279491       0.00602769
Te       5.05891062       2.32333726       5.27980237      -0.00043828      -0.00712982       0.00561699
Li       2.18751560       2.30790172       5.29521201       0.00412774      -0.00629614       0.00420028
Li       5.04647494       2.31538507       2.40610639       0.00810048       0.01213315       0.00655637
Te       2.18426627       2.31186958       2.43044727      -0.01121455      -0.01419496      -0.01048183
Te       5.03602758       5.12502465       2.42729358       0.00341587      -0.00555900      -0.02017303
