4
Lattice="4.218418585415391 0.0010628224687354183 -1.507098662746267 -0.0014095561277949677 4.169095389078696 -0.0009924898571856114 0.5898549096387605 0.0017728437869854266 8.309068204738852" Properties=species:S:1:pos:R:3:forces:R:3 structure_index=0 total_energy=-35.70859146118164 stress="-0.02532883547246456 -0.00015427741163875908 -0.004016486927866936 -0.00015423441072925925 -0.010066334158182144 -0.0003913687833119184 -0.004016435239464045 -0.00039139672298915684 -0.036978207528591156" pbc="T T T"
Eu       3.14303192       1.95943660       3.86814655       0.00300214      -0.00015226       0.00913619
Au       1.29270113       4.04337850       5.34708034       0.00451424       0.00092671       0.01389730
Eu       1.50878694       1.95849684      -0.70922592      -0.01394685      -0.00045311      -0.03449267
Eu       4.44625821       4.04434298       0.86469984       0.00643049      -0.00032135       0.01145919
