6
Lattice="4.70789909362793 0.0 -1.177106261253357 1.6781706033214894 3.6536095835657125 -2.3714635372161865 0.0 0.0 4.600903034210205" Properties=species:S:1:pos:R:3 pbc="T T T"
Ga       3.42376080       3.07981233      -1.32978720
Fe       4.81165696       0.95860437      -1.24136767
Ga       5.35953979       2.16456409       1.00257757
Ga       2.32436335       0.67751427       3.40145003
Ga       5.94648059       3.40950448      -1.25186128
Ni       2.87651152       1.86900075       1.04094972
