6
Lattice="4.770133158105801 0.010172118443329142 -1.1848693193513526 1.7066446350253637 3.6785260952906227 -2.393518698234648 0.010671265688923058 0.014722565288060409 4.673926449726694" Properties=species:S:1:pos:R:3:forces:R:3 structure_index=0 total_energy=-26.933271408081055 stress="-0.06322076171636581 -0.02328193560242653 0.013650331646203995 -0.0232818853110075 -0.043507274240255356 -0.03196718916296959 0.013648629188537598 -0.03196748346090317 -0.07376033067703247" pbc="T T T"
Ga       3.47805781       3.09402311      -1.34357784      -0.01788934      -0.00423858       0.00314439
Fe       4.87718646       0.98222669      -1.24928274       0.00754666      -0.00503828       0.00001293
Ga       5.44610990       2.20306194       1.04380534      -0.00704603      -0.01028550      -0.01669998
Ga       2.37129379       0.71024087       3.48073892       0.00440770       0.00043640       0.01276192
Ga       6.02824060       3.44649041      -1.25816556       0.01084019       0.01640676      -0.00039041
Ni       2.92260459       1.89304217       1.07048095       0.00214089       0.00271924       0.00117128
