17
Lattice="5.3620429039001465 0.0 -1.8216067552566528 -1.415820638919527 5.154002391952692 -1.523508071899414 0.0 0.0 8.569655418395996" Properties=species:S:1:pos:R:3:forces:R:3 sample_seed=85000 sample_index_within_seed=0 benchmark_method=C0 dft_verified=F structure_index=0 total_energy=-113.02080535888672 stress="1.1318637132644653 -0.17209205031394958 0.3042234778404236 -0.17209239304065704 0.9659960865974426 0.09564892202615738 0.3042249083518982 0.0956495851278305 0.7796013951301575" pbc="T T T"
Mn       3.96094404       3.57142331       4.38247519       0.01707571       0.05537896       0.02223947
O        2.72367431       2.28998929      -0.69563695      -0.05084733       0.09571759       0.00697394
Mn       1.42449049       1.06813719       0.36720745       0.06109872      -0.07452440      -0.01567221
Li       1.34014117       3.53032453      -1.21799419       0.00420871       0.02626429      -0.03952929
Mn       3.17893198       0.82422126       6.53263018      -0.24706331      -0.00063978       0.08882289
F       -1.03645441       4.50515972       2.92303015       0.00117318      -0.07891957      -0.03716919
F        3.66655641       4.87348628      -2.31311169       0.06784087      -0.05005760       0.00669957
Mn       3.88056772       0.18215467       3.28394993       0.00843913       0.01317196      -0.24252518
Mn       0.78147424       3.27991703       3.97262122      -0.00700447       0.05600268       0.19723451
F        0.74810165       2.41714977       1.96357069      -0.14823537       0.09068933      -0.06472005
F        4.53996104       2.09625036       2.83925159      -0.00786102       0.00929032       0.01718938
F        0.98875213       4.86507262       0.30893444       0.09264006      -0.02693935       0.03004380
Mn       4.38479370       3.47269796      -0.71896605       0.08676121      -0.02816199      -0.09415891
O        2.32863923       4.60554213       3.59035986       0.09671090      -0.16405864       0.01862673
O        0.41262055       4.54546315       5.92392190      -0.00749059      -0.08034013       0.00217420
F        2.42235363       1.99960998       4.73295333       0.05808588       0.06149419      -0.00428448
F       -0.26893687       2.30644152      -0.71621301      -0.02553243       0.09563240       0.10805495
7
Lattice="5.375202178955078 0.0 0.0032818098552525043 0.01567746000948966 5.377796686543173 0.00217432901263237 0.0 0.0 5.535987377166748" Properties=species:S:1:pos:R:3:forces:R:3 sample_seed=85001 sample_index_within_seed=0 benchmark_method=C0 dft_verified=F structure_index=0 total_energy=-42.69673156738281 stress="2.2914721965789795 0.033299099653959274 0.008945535868406296 0.033298783004283905 2.3222739696502686 0.005971142090857029 0.008945758454501629 0.005971295293420553 -1.517842173576355" pbc="T T T"
Eu       4.66213212       4.42571519       2.90760798       0.01469378      -0.00360760       0.00315526
P        4.66528536       4.42252388       0.13983057      -0.00086033       0.00948292      -0.00293401
Fe       1.96973517       4.42373873       0.13813816      -0.00781641      -0.00368621      -0.00014945
Fe       4.65566029       1.73312357       0.13772634       0.00562248      -0.00146950       0.00085696
Cl       4.65227097       1.73599866       2.90533697      -0.00040067       0.00246291      -0.00112681
Cl       1.96466780       1.73830640       0.13205602       0.00428141      -0.00511470       0.00244421
Cl       1.97629360       4.42081026       2.90577975      -0.01552026       0.00193223      -0.00224619
19
Lattice="6.301930904388428 0.0 1.1411280632019043 0.31719477928993006 5.5249908808126404 2.9510910511016846 0.0 0.0 6.221107006072998" Properties=species:S:1:pos:R:3:forces:R:3 sample_seed=85002 sample_index_within_seed=0 benchmark_method=C0 dft_verified=F structure_index=0 total_energy=-141.5790252685547 stress="-1.3955624103546143 -1.0937671661376953 -0.7159340977668762 -1.0937678813934326 -0.374598890542984 -0.7145383954048157 -0.7159334421157837 -0.7145390510559082 -1.4988778829574585" pbc="T T T"
Fe       0.87183507       4.45634224       4.97089234      -0.20782200       0.00964498       0.05891770
Co       5.97320203       0.14849880       5.22156341       0.01293201       0.00841244      -0.04759164
Fe       0.27691125       1.44692748       1.91534895      -0.17417485      -0.00827179       0.12234345
Co       5.56062253       2.51811184       5.42865781       0.11954257      -0.04058682       0.18388566
Fe       3.51601470       1.28954408       5.25864933       0.13599297      -0.13050821      -0.20717266
Fe       3.57301499       2.94544547       6.98155120       0.41277668       0.11947361      -0.00395551
Co       3.86403955       4.56113789       8.74239979      -0.06798818      -0.11425914      -0.02293897
Co       1.54430270       3.63533924       7.38000304      -0.52741742       0.08628737       0.22843754
Co       4.81156651       5.13230993       6.20850909       0.05684029       0.08739568      -0.05637839
Fe       3.26270724       3.89086142       4.80053016       0.33420062       0.07816625      -0.21489520
Co       1.84151931       2.68011134       3.31985309      -0.16694030      -0.02238995       0.03515584
Fe       2.66435675       0.87229145       1.48137698       0.17291711      -0.06071962       0.04827445
Co       1.58244108       5.27793703       9.10528280      -0.07951295       0.01780514      -0.19255833
Co       1.26389814       2.00407449       5.61956575      -0.21439674       0.09695506      -0.06773493
Co       5.83852801       4.02859681       3.82661159       0.15368642       0.02424844      -0.12392741
Fe       2.11022335       0.16485261       3.69227916      -0.01463061       0.07899514       0.11881834
Co       4.22981681       2.11589393       3.14005506       0.00365784      -0.11632758      -0.11197026
Ni       5.70791685       3.28217874       7.73903445       0.09294752      -0.01865942       0.06779100
Co       5.13565937       0.87066801       7.33949757      -0.04261106      -0.09566161       0.18549921
11
Lattice="4.444487571716309 0.0 0.8056395649909973 -0.8336515745504379 4.357169536080166 0.705417811870575 0.0 0.0 4.463974952697754" Properties=species:S:1:pos:R:3:forces:R:3 sample_seed=85003 sample_index_within_seed=0 benchmark_method=C0 dft_verified=F structure_index=0 total_energy=-64.25125885009766 stress="0.15480929613113403 0.039085619151592255 -0.3933056592941284 0.03908590227365494 -0.22048130631446838 -0.0480005107820034 -0.3933051824569702 -0.04800175875425339 -0.43406209349632263" pbc="T T T"
Fe       2.73427494       2.66898974       3.15298205       0.04509266       0.11034308      -0.08727574
Fe       0.75334865       3.34382629       1.50395082      -0.04104581      -0.10937119       0.08997685
Ni       1.96874924       0.21341068       3.13165377      -0.05970291       0.02055612      -0.04185665
Fe      -0.06104669       0.82895388       1.57213930       0.00220740      -0.00709914       0.00281737
Ni       2.35525068       1.44378240       0.82077772       0.05282330      -0.02768347       0.04064615
Co       0.32604773       2.05267531       3.80258009       0.08809972       0.02885727       0.01116372
H        3.74831798       2.41208964       1.56275267       0.01423451      -0.02507406       0.00666032
H       -0.25810147       3.59518475       3.09701268      -0.01698283       0.03359192      -0.01054461
H        2.15664835       4.24757399       2.31398644      -0.01312207      -0.01148919      -0.04429501
Co       3.16121911       3.95944484       5.31766682      -0.08240013      -0.02989966      -0.00757094
H        1.33336997       1.76059989       2.34627880       0.01079612       0.01726829       0.04027854
8
Lattice="3.994941234588623 0.0 -1.5036226511001587 -0.48060886218181825 4.754776528734458 -0.5679391026496887 0.0 0.0 4.786491870880127" Properties=species:S:1:pos:R:3:forces:R:3 sample_seed=85004 sample_index_within_seed=0 benchmark_method=C0 dft_verified=F structure_index=0 total_energy=-42.580509185791016 stress="-1.2475301027297974 -0.2647012174129486 -0.3289579749107361 -0.2647010385990143 -1.3502593040466309 -0.1160641461610794 -0.32895761728286743 -0.11606378108263016 -1.9241957664489746" pbc="T T T"
Ga       2.35397293       0.97351400       0.04929350       0.00483994       0.08081626       0.07011151
Fe       0.54498836       2.31861693       1.20781605      -0.06021938       0.00683355      -0.06441653
Fe       1.25938336       0.34743980       2.59079024      -0.00349376      -0.01126049       0.03832479
Zn       3.40217069       1.70935714       2.25462593       0.01507825       0.04937943      -0.01777387
Zn       1.55019595       3.06820983       3.41691992      -0.01565574       0.00441754       0.02535015
Fe      -0.28180354       4.44040332      -0.23904525       0.03856921       0.06422393       0.11263181
Fe       2.55902480       3.76548541       0.96349994       0.00213039      -0.08399551      -0.08087449
H       -0.14775730       3.86101475       1.37046043       0.01875110      -0.11041466      -0.08335342
14
Lattice="4.122189521789551 0.0 2.2822377681732178 1.2665595965043792 4.240981030456646 2.349301338195801 0.0 0.0 5.148281574249268" Properties=species:S:1:pos:R:3:forces:R:3 sample_seed=85005 sample_index_within_seed=0 benchmark_method=C0 dft_verified=F structure_index=0 total_energy=-64.4916000366211 stress="0.46324896812438965 -0.30826327204704285 0.5777963399887085 -0.3082621395587921 -0.10791899263858795 0.24341736733913422 0.5777967572212219 0.2434169501066208 -2.019042730331421" pbc="T T T"
Ni       3.55729782       1.80698615       2.78413290      -0.03223562       0.07458775       0.05057642
Ni       1.71385863       0.22419359       1.35692537       0.20032243      -0.00669257      -0.17158766
H        4.52351615       2.71653014       5.59627757       0.01086358      -0.01041754       0.10759366
Ni       2.94981651       2.32821325       5.27911197      -0.15640509      -0.02902101      -0.05102914
Ni       1.07468358       1.19813414       3.73201039      -0.00844167      -0.00724350       0.05858240
H        0.53023377       0.58393079       5.32673530       0.09046201       0.09954618       0.12317745
Mn       1.29855635       3.24983959       7.06523866      -0.16762795      -0.02386703      -0.06182879
H        2.52444611       3.97785249       5.25451211      -0.03874174       0.01891363      -0.19150886
H        1.05893169       2.48791723       5.31697205      -0.02109407      -0.00562806      -0.04810384
H        3.15293700       3.38297566       7.59680260       0.10105649       0.05359251       0.04696801
Ni       4.69084605       3.90071045       6.83600950       0.08049549       0.04663447       0.21041211
H        2.73072846       1.19727367       4.04106312      -0.02328238      -0.07749316       0.03706054
H        2.27131643       1.77583037       6.80059830       0.02936249      -0.11661333       0.03620896
H        3.47914691       0.48517606       5.97548704      -0.06473388      -0.01629843      -0.14652148
9
Lattice="3.9669525623321533 0.0 1.3482083082199097 1.292491313754908 5.787291345602354 2.6722617149353027 0.0 0.0 6.489254474639893" Properties=species:S:1:pos:R:3:forces:R:3 sample_seed=85006 sample_index_within_seed=0 benchmark_method=C0 dft_verified=F structure_index=0 total_energy=-92.91557312011719 stress="-1.4621055126190186 -0.16148193180561066 -0.3015269935131073 -0.1614825427532196 -1.153313159942627 0.26316696405410767 -0.3015267550945282 0.2631671726703644 -0.9542233347892761" pbc="T T T"
O        2.93482998       1.76139931       5.22864711      -0.02733965      -0.05953363       0.07129465
Gd       4.76702720       5.76253087       6.32502131      -0.01720814      -0.07125869       0.05065407
Sr       0.64768254       0.45685368       5.45528117      -0.00398122      -0.07856432      -0.02341064
Gd       3.40319625       3.51767509       3.83978005       0.01493283       0.14938702      -0.04371122
Eu       2.26130172       3.09399369       7.18199333       0.02845629       0.13884237      -0.03603042
O        4.08794879       4.63459034       8.32202892       0.05565239      -0.07822470      -0.18013479
O        2.77513352       4.98151945       5.67634303      -0.01130509      -0.11812997       0.03904065
O        3.93506891       1.78744610       2.29410921      -0.01342026      -0.05859007       0.03300302
O        1.42647919       4.29817943       3.14374347      -0.02578713       0.17607220       0.08929457
4
Lattice="5.723969459533691 0.0 0.010058969259262085 0.0014331351864143719 5.720741092461261 0.014034627005457878 0.0 0.0 5.7260637283325195" Properties=species:S:1:pos:R:3:forces:R:3 sample_seed=85007 sample_index_within_seed=0 benchmark_method=C0 dft_verified=F structure_index=0 total_energy=-32.36427307128906 stress="-0.08873921632766724 0.0013453515712171793 0.009177781641483307 0.0013453398132696748 -0.09170015156269073 0.012890059500932693 0.009177787229418755 0.012890055775642395 -0.0869554653763771" pbc="T T T"
Sr       3.91053788       0.75472617       5.32218852      -0.00133511       0.00109039      -0.00061669
Eu       1.04705061       0.75676559       2.45261536       0.00041122      -0.00046282       0.00164021
Eu       3.90870610       3.61601831       2.46645759       0.00054185      -0.00011743       0.00024325
Eu       1.04784021       3.61654103       5.32589617       0.00038203      -0.00051013      -0.00126678
12
Lattice="4.730674743652344 0.0 2.901169538497925 1.7827934708628135 4.70039656856643 2.9020073413848877 0.0 0.0 5.809697151184082" Properties=species:S:1:pos:R:3:forces:R:3 sample_seed=85008 sample_index_within_seed=0 benchmark_method=C0 dft_verified=F structure_index=0 total_energy=-102.23043823242188 stress="2.694464683532715 -1.1754488945007324 -0.0513865165412426 -1.175450086593628 -0.1856164038181305 -0.010394290089607239 -0.05138533562421799 -0.010395379737019539 -0.5051244497299194" pbc="T T T"
Ta       3.77357840       3.66814876       6.68199400      -0.05271357       0.04850679       0.02143499
Fe       4.16550019       3.43837161       9.58770592       0.30962858      -0.00740057      -0.04159411
B        3.99927942       0.00174655       6.68184371      -0.01089459       0.00777602       0.02028948
Fe       1.73353973       3.50884499       8.20354008      -0.20038110       0.11994360      -0.11782002
B        4.89204045       2.35082557       5.22969939       0.02279111       0.01556506      -0.01622962
Fe       1.73518149       3.51372099       5.17012154      -0.25114301       0.11160796       0.03688441
Fe       3.31583966       1.20169595       5.16789625       0.23483486      -0.20318477       0.01854762
B        4.89710189       2.34938650       8.13154123      -0.00304407       0.04182876       0.06397888
Ta       1.28575757       1.03217924       6.68795483      -0.02885625      -0.01950248      -0.02096958
Fe       3.32199861       1.19681505       8.19692668       0.21257234      -0.13377176      -0.05044848
Fe       0.88582757       1.26310262       3.77885995      -0.26550245      -0.02936628       0.00291099
B        3.99749145       0.00280446       3.77500316       0.03270806       0.04799775       0.08301541
8
Lattice="4.764561176300049 0.0 0.007415344472974539 -2.366247137092615 4.135652507251991 0.00714468490332365 0.0 0.0 10.125357627868652" Properties=species:S:1:pos:R:3:forces:R:3 sample_seed=85009 sample_index_within_seed=0 benchmark_method=C0 dft_verified=F structure_index=0 total_energy=-53.714542388916016 stress="1.573926568031311 0.07781271636486053 0.03732474520802498 0.07781262695789337 1.603968858718872 0.038625385612249374 0.03732474893331528 0.03862522915005684 1.258392095565796" pbc="T T T"
Cu       1.17839987       3.88802016       5.56836810      -0.00852260       0.00318815      -0.00910837
Sc      -1.20992577       2.50857238       6.10599005      -0.00595029       0.00328550      -0.00453239
Eu      -1.21063706       2.51055353       1.03666937       0.00500978      -0.02091491       0.00698466
Cu       1.16750425       1.12707849       0.42775975       0.01861792       0.00633541      -0.17002490
Eu       1.16470063       1.13143754       3.65252815       0.00696776      -0.00305690      -0.09237660
Eu       1.17795809       3.88746306       8.56254479      -0.00529297       0.00181623       0.09710377
Cu       1.16343409       1.13051821       6.64507944       0.01376163      -0.00548612       0.01108845
Cu       1.17745259       3.88793906       1.67806076      -0.02459125       0.01483261       0.16086531
3
Lattice="4.0991668701171875 0.0 0.007915126159787178 0.007981957919692403 3.6763757840071922 -2.125175952911377 0.0 0.0 4.2433271408081055" Properties=species:S:1:pos:R:3:forces:R:3 sample_seed=85010 sample_index_within_seed=0 benchmark_method=C0 dft_verified=F structure_index=0 total_energy=-20.28462791442871 stress="0.029447391629219055 0.0346471443772316 0.028850732371211052 0.03464716672897339 0.9198768138885498 -0.040029462426900864 0.02885057032108307 -0.0400296114385128 0.9023144841194153" pbc="T T T"
Eu       3.05608620       1.40097905       0.16215889      -0.00802942      -0.00246958      -0.00190748
Ni       1.00498898       2.62559162       2.28030043       0.00148781      -0.00483986      -0.01532154
Ga       1.00004861       0.17336308       2.27824862       0.00654160       0.00730942       0.01722902
9
Lattice="4.264269828796387 0.0 -0.0013762644957751036 -0.00768697706804984 6.56841209744673 -3.792083501815796 0.0 0.0 7.582387447357178" Properties=species:S:1:pos:R:3:forces:R:3 sample_seed=85011 sample_index_within_seed=0 benchmark_method=C0 dft_verified=F structure_index=0 total_energy=-49.19078826904297 stress="-0.18680958449840546 -0.022942552343010902 -0.006402588915079832 -0.022942591458559036 -0.2219761461019516 -0.002192267682403326 -0.006402489263564348 -0.0021922846790403128 -0.23359717428684235" pbc="T T T"
Eu       0.95071873       4.77162901       1.98674065      -0.00001702      -0.00062122       0.01922338
Mg       3.08058525       6.33969203      -3.35238607       0.00087274      -0.00944770      -0.00091380
Cu       0.95084378       4.77315041      -2.44953198      -0.00038231      -0.00408584       0.00215197
Eu       0.95445089       2.04672269      -0.87645856      -0.00127600       0.01052655      -0.00458541
Mg       3.08328807       4.77120031      -0.63859603      -0.00112694       0.00108163      -0.01232445
Mg       3.08461888       3.20228440       4.22863673       0.00009600       0.01341072       0.00336197
Cu       3.08832934       0.39292202       5.13622127      -0.00070850      -0.00085428      -0.00407000
Eu       0.95420822       0.92893053       2.91500928       0.00205379      -0.01459036      -0.00347046
Cu       3.08497872       2.57945117       1.34146586       0.00048823       0.00458050       0.00062676
11
Lattice="3.7305424213409424 0.0 1.0514874458312988 1.3829830004112855 6.701186551657578 2.2522010803222656 0.0 0.0 7.144590377807617" Properties=species:S:1:pos:R:3:forces:R:3 sample_seed=85012 sample_index_within_seed=0 benchmark_method=C0 dft_verified=F structure_index=0 total_energy=-81.27989196777344 stress="-0.3217654526233673 0.11442640423774719 -0.42622628808021545 0.11442604660987854 1.4624853134155273 -0.27987685799598694 -0.4262261390686035 -0.2798754870891571 1.146234154701233" pbc="T T T"
Mn       2.93155328       1.48419116       4.80826093       0.01226267       0.25710922      -0.00765726
Mn       2.13892006       6.64146580       7.63589050      -0.05110429      -0.24155703       0.19023205
Sb       0.62330335       2.73752548       5.86992260       0.01869335       0.05472838      -0.09746584
Mn       2.18888536       1.00760621       7.45263653      -0.02176200       0.02162039       0.04419933
Mn       3.71916803       4.47846950       9.16438590      -0.00794156      -0.13668226       0.03407507
Mn       1.45970115       2.87943906       2.88564396       0.03690794       0.48183388      -0.06637388
Mn       1.47452573       0.31909529       2.84129351       0.01983445      -0.29035616      -0.12166609
Pd       4.37642209       5.52608709       6.83923701       0.03470593      -0.11108061      -0.09840927
Sb       1.43012760       5.80746460       3.00171769       0.01989357      -0.13785262      -0.02536253
Pd       2.96242972       4.19139583       4.71818546      -0.04644914      -0.11054672       0.09630349
Mn       3.63853302       1.78264226       2.30417592      -0.01504095       0.21278363       0.05212482
9
Lattice="4.212806701660156 0.0 0.0007024016231298447 -2.1081746259931715 6.0171604885130545 -1.2093775272369385 0.0 0.0 6.363283157348633" Properties=species:S:1:pos:R:3:forces:R:3 sample_seed=85013 sample_index_within_seed=0 benchmark_method=C0 dft_verified=F structure_index=0 total_energy=-61.586402893066406 stress="1.4614852666854858 -0.014026694931089878 0.014550521969795227 -0.014026572927832603 1.5157561302185059 0.18953631818294525 0.014550344087183475 0.18953624367713928 1.0926231145858765" pbc="T T T"
Eu       2.58038430       1.96459464       0.19480612      -0.01156840       0.09867216       0.24814039
Al       0.47056670       5.93069949       1.68693858      -0.00295786      -0.24629740       0.06460105
Al       0.47049604       2.69235414       4.34731757       0.00250231      -0.02107161      -0.15864807
Ni       0.46833627       3.51414828       2.12071498       0.01045118      -0.00286561      -0.17413242
Fe       0.47185642       1.10502419       2.46127692      -0.00006011       0.20835936       0.04668926
Eu      -1.63717257       5.15324660       4.25562157       0.00374741      -0.00673360      -0.02203048
Ni       0.46958810       4.27431887      -0.18742972       0.00298240      -0.07807311       0.07248497
Ni      -1.63567286       4.68583326       1.25439405      -0.00640581      -0.03264282      -0.03606137
Ni       2.57644641       2.35154057       3.04617913       0.00130889       0.08065256      -0.04104330
11
Lattice="3.3152754306793213 0.0 0.2133304327726364 1.35317535983598 2.890051393243049 0.20557093620300293 0.0 0.0 14.460471153259277" Properties=species:S:1:pos:R:3:forces:R:3 sample_seed=85014 sample_index_within_seed=0 benchmark_method=C0 dft_verified=F structure_index=0 total_energy=-70.36430358886719 stress="-4.364190101623535 -2.7466747760772705 0.025190651416778564 -2.7466728687286377 -7.009401798248291 -0.37899696826934814 0.025187136605381966 -0.3789997398853302 -1.323603868484497" pbc="T T T"
O        3.55040302       0.87999364       2.82691069      -0.18097377      -0.02011453      -0.52345997
Fe       1.42196736       1.64583474       6.77052610       0.29770532       0.01224809      -0.13960314
F        2.15109370       2.01927394       0.28383611       0.16235438       0.06991115       0.11013326
Mg       0.51622913       1.02046888       0.77675611      -0.14733294      -0.03190011       0.39839590
Fe       2.40945020       2.22671398      12.21556798      -0.50014883       0.24111785      -0.75059533
Mn       3.26733810       2.76483972       3.95158397      -0.01259926      -0.02209657       0.23513636
Fe       2.86533415       0.44958372       9.77469613       0.39374375      -0.23952147      -0.45110893
O        2.69792741       0.34238441      12.15931956       0.57249910      -0.26179713       0.88959295
O        2.53913025       2.31445951      10.02253966      -0.43456930       0.29575011       0.01066580
O        3.10158041       0.63853509       7.41994210      -0.26964805      -0.03650082       0.10344517
O        1.64229322       1.75341124       4.92721845       0.11896946      -0.00709668       0.11739808
8
Lattice="6.085951328277588 0.0 -0.0027346829883754253 0.009932179088032731 6.507130195418821 -3.764108657836914 0.0 0.0 7.514840126037598" Properties=species:S:1:pos:R:3:forces:R:3 sample_seed=85015 sample_index_within_seed=0 benchmark_method=C0 dft_verified=F structure_index=0 total_energy=-64.66683959960938 stress="-0.32122620940208435 0.014911282807588577 -0.002584882080554962 0.01491131354123354 -0.33120834827423096 -0.007609847001731396 -0.002584917936474085 -0.007609977852553129 -0.3257851302623749" pbc="T T T"
Eu       2.06821540       0.55208553       6.97603077       0.00550935      -0.06095044       0.00091649
Eu       2.07899209       3.84668837       5.06748766      -0.00453035       0.03645992      -0.05365784
Eu       5.11646425       1.65343305       1.36064838      -0.00090334      -0.03178025       0.05476157
Eu       5.12385918       4.95158966      -0.54342318      -0.00399632       0.06256268      -0.00286066
Eu       2.07672509       3.85370467       1.36162141       0.00127602       0.02773446       0.05175874
Li       2.07214886       0.58712567       3.21524482      -0.00013087      -0.00110803       0.00048547
Eu       5.11425700       1.65515571       5.06654765       0.00257187      -0.03339808      -0.05133728
Li       5.12047857       4.91941979       3.21271882       0.00020367       0.00047975      -0.00006644
8
Lattice="2.835542917251587 0.0 -0.00029454202740453184 0.003582108848067621 5.108133490564151 -2.549149990081787 0.0 0.0 6.354551792144775" Properties=species:S:1:pos:R:3:forces:R:3 sample_seed=85016 sample_index_within_seed=0 benchmark_method=C0 dft_verified=F structure_index=0 total_energy=-63.808998107910156 stress="-1.2654153108596802 0.06247110292315483 -0.013080447912216187 0.062471479177474976 -1.6212977170944214 -0.308235764503479 -0.013079659081995487 -0.30823564529418945 -1.0360288619995117" pbc="T T T"
Fe       1.81913996       3.04412825      -0.02816395      -0.00227673      -0.01580233      -0.03620718
Co       1.81994483       4.34202776       2.49559380      -0.00051868      -0.01240788      -0.03857268
Fe       1.81807728       1.77720917       3.74840601      -0.00062568       0.01695760       0.02962759
Co       1.81723866       0.48251526       1.21851876      -0.00134171      -0.00584942       0.06910142
Fe       0.40008622       1.12507079       5.68281837      -0.00122816       0.04042943      -0.05484874
Fe       0.40171534       4.96497241       0.58330586       0.00594583       0.00287889      -0.00165912
Co       0.40055106       2.41144275       1.86245995       0.00167038      -0.00143531      -0.01844780
Fe       0.40199474       3.69570816       4.39061823      -0.00162514      -0.02477100       0.05100647
20
Lattice="4.920495510101318 0.0 1.5338932275772095 2.1283866169386547 5.057975947276937 2.221356153488159 0.0 0.0 8.92131519317627" Properties=species:S:1:pos:R:3:forces:R:3 sample_seed=85017 sample_index_within_seed=0 benchmark_method=C0 dft_verified=F structure_index=0 total_energy=-129.61776733398438 stress="0.7835320830345154 0.37256261706352234 0.21679028868675232 0.3725661039352417 0.04314484819769859 -0.1899224817752838 0.2167937308549881 -0.18992269039154053 0.5489376783370972" pbc="T T T"
Fe       4.96331173       3.03187159       7.60067880       0.25529695      -0.10933989      -0.11814047
Fe       3.32141892       4.90973517       4.02381710      -0.10478475      -0.39195496      -0.14599517
Fe       3.04986622       1.47408058       4.66146479      -0.04214372      -0.16368687       0.18401860
Mg       2.04197329       1.90181351       8.05321039       0.02729400      -0.04279835      -0.11117552
Fe       5.87412005       2.58535216       4.24924151      -0.15888414       0.25357151       0.35068196
Fe       0.18804486       0.41215842       5.09935598      -0.19480498       0.11965418       0.03204577
Fe       3.46359501       3.72260066       9.89812597       0.09994872       0.30601817       0.35048288
O        2.45373106       3.19489960       3.90247845       0.01112673       0.39864451      -0.17715949
O        3.07684901       3.76518124       8.01751629      -0.08203954       0.00549781      -0.04148778
Fe       4.09877303       0.98606439      10.16179751      -0.04225848      -0.18517137      -0.06771830
O        5.08639695       2.78638610       9.68823529      -0.03873581       0.33352071       0.07756150
O        2.39596425       2.14853507      10.20564847      -0.12645197       0.03359684      -0.05948030
O        4.58039707       1.30380487       3.25297462       0.15542936      -0.03733906       0.01732379
O        5.22852875       4.37565814       3.71639090      -0.14125969      -0.11336663      -0.00257351
O        3.92221023       1.05615182       8.12485537       0.02635235      -0.10219127      -0.20963910
O        1.56986869       1.67052180       6.05703664      -0.08083692       0.06246237      -0.07369629
O        4.51655413       2.36424832       5.77008546       0.08010882       0.03230262       0.03017357
O        0.99968040       0.20378226       8.68039112       0.31213164      -0.13256413      -0.01204899
O        1.55799266       0.63319816       3.56972969      -0.03708237      -0.01523623      -0.12996393
O        5.79217762       4.80374998       7.67127091       0.08159424      -0.25161994       0.10679031
6
Lattice="2.7574005126953125 0.0 0.808201014995575 1.3253002385459918 4.559338178907616 0.6240426898002625 0.0 0.0 5.068518161773682" Properties=species:S:1:pos:R:3:forces:R:3 sample_seed=85018 sample_index_within_seed=0 benchmark_method=C0 dft_verified=F structure_index=0 total_energy=-49.532379150390625 stress="0.34733667969703674 0.22629192471504211 0.061080195009708405 0.2262933999300003 0.5900038480758667 -0.21446417272090912 0.061081890016794205 -0.21446359157562256 -0.40032291412353516" pbc="T T T"
Fe       2.68568385       0.87287096       1.66271363      -0.03325571       0.01126555       0.06349105
Fe       1.06840647       2.65192555       2.06552402       0.04131372       0.04495456      -0.10320543
W        1.88998362       1.74422442       4.34697239      -0.01735234      -0.00966676       0.09448400
Fe       2.16236234       4.36292365       3.45690284       0.04851338      -0.03608589      -0.15920749
H        0.37915657       0.28226328       4.38610658      -0.02627623      -0.15248840       0.08308589
Fe       2.96390604       3.58941228       5.80615816      -0.01294274       0.14202097       0.02135193
16
Lattice="3.180582046508789 0.0 0.0035377570893615484 0.0024347182605262765 7.505171857737167 -3.214778423309326 0.0 0.0 8.131893157958984" Properties=species:S:1:pos:R:3:forces:R:3 sample_seed=85019 sample_index_within_seed=0 benchmark_method=C0 dft_verified=F structure_index=0 total_energy=-117.76731872558594 stress="-1.5654770135879517 0.009344509802758694 0.009184546768665314 0.009345261380076408 1.5380529165267944 0.5195956230163574 0.009184095077216625 0.5195962190628052 1.8922752141952515" pbc="T T T"
Mg       0.99561595       5.08485287       2.25000044       0.01965430      -0.07488805       0.18390520
Mn       0.99786253       1.95604663       2.64600007      -0.01411063       0.19848198      -0.12950349
Mn       2.58622623       3.74431769      -0.07218041       0.00862051       0.36352617      -0.39355910
Mn       2.58803953       7.27747914       0.91332766      -0.01043618      -0.12985712       0.09760135
Mn       2.58855634       3.39197013       5.03767210      -0.01230926      -0.35094914       0.17761859
O        0.99746770       3.14193710       0.97637287      -0.00842068      -0.47025859       0.40519410
Mn       0.99491290       0.86763285       7.16507408       0.00051866       0.04091682      -0.24333699
Mn       0.99859576       6.25108663      -2.19762935       0.00399637      -0.09851094       0.05482404
O        2.59121992       4.85766878      -1.79640718      -0.00557961       0.19520286      -0.04455085
O        2.58849093       7.31551672       4.94903468      -0.00338166       0.05932532       0.07645614
O        0.99705304       7.19010408       2.19585049       0.01513231       0.16931586       0.39089313
O        2.58452903       1.75359145       3.94617358       0.01550840      -0.03614316       0.10683793
O        0.99466157       3.99514117       3.95529053       0.01806840       0.58195782      -0.52182150
O        2.58937622       5.31854893       1.10002730      -0.02899374      -0.14494926      -0.05566035
O        0.99538113       7.33963478      -0.40359922       0.00495323      -0.10290408      -0.30147085
O        2.58444256       2.27827481       6.74831703      -0.00322026      -0.20026630       0.19657290
4
Lattice="2.5983426570892334 0.0 0.42428719997406006 1.266600386704056 2.2711889982229576 0.42099693417549133 0.0 0.0 8.295419692993164" Properties=species:S:1:pos:R:3:forces:R:3 sample_seed=85020 sample_index_within_seed=0 benchmark_method=C0 dft_verified=F structure_index=0 total_energy=-30.3231258392334 stress="-0.9881664514541626 0.0015678390627726912 0.7751718163490295 0.0015687152044847608 -0.8751022219657898 0.39997273683547974 0.7751726508140564 0.39997217059135437 -5.4779815673828125" pbc="T T T"
Mn       1.93907934       1.98418450       1.20447841       0.01965553       0.00870668      -0.17556684
Ge       1.31972951       1.61996951       5.00296593       0.03635220       0.02707870      -0.27433428
Fe       0.95245623       1.40313826       7.33115961      -0.03817505      -0.02674443       0.32707918
Mn       2.95450215       1.05225693       3.15834197      -0.01783257      -0.00904097       0.12282196
12
Lattice="4.494975566864014 0.0 1.351271629333496 2.05117267827471 3.9998820476473154 1.3508245944976807 0.0 0.0 8.156967163085938" Properties=species:S:1:pos:R:3:forces:R:3 sample_seed=85021 sample_index_within_seed=0 benchmark_method=C0 dft_verified=F structure_index=0 total_energy=-102.72515869140625 stress="1.335172414779663 0.09992101043462753 0.36506783962249756 0.09992118179798126 1.2533339262008667 0.22023756802082062 0.3650690019130707 0.2202376425266266 0.32115334272384644" pbc="T T T"
Fe       2.31830542       2.35966209       3.49038086       0.00360984       0.00666672       0.05799451
Mn       4.47759681       0.93394178       4.46576134       0.00989394       0.00232976      -0.08036590
Mn       4.65405525       3.78634350       3.88239220      -0.00899444      -0.00020860       0.04151255
Fe       1.74754049       2.01065214       1.25930871      -0.05128084      -0.02146780       0.10372419
Fe       0.73619936       0.04480267       0.59286604      -0.03346775      -0.07479050       0.14127529
Fe       4.02913668       2.00938570       1.94347700      -0.05710428      -0.00124037       0.14909841
Mo       3.53904566       0.36006334       7.57222426       0.00417790       0.00098781      -0.00365743
Fe       5.10427076       2.71196164       6.39383982       0.07195459       0.01733847      -0.15893567
Fe       1.85004119       0.67838451       5.04304155       0.05368021       0.06862571      -0.15441993
Fe       2.89254898       2.71199764       5.73160256       0.01178767       0.00068407      -0.18169083
Fe       1.23120508       1.69745804       7.09285932      -0.02114254      -0.02286236       0.22003023
Fe       3.40470686       3.02284720       8.04430716       0.01688575       0.02393704      -0.13456568
12
Lattice="5.8447113037109375 0.0 0.000681856763549149 -2.9202008869415867 5.061016556531538 0.0012061659945175052 0.0 0.0 9.501291275024414" Properties=species:S:1:pos:R:3:forces:R:3 sample_seed=85022 sample_index_within_seed=0 benchmark_method=C0 dft_verified=F structure_index=0 total_energy=-75.55274200439453 stress="2.254699230194092 0.007536223623901606 0.0017969314940273762 0.007536362390965223 2.2487545013427734 0.006141515914350748 0.001796854310669005 0.0061414288356900215 1.8460315465927124" pbc="T T T"
Al       4.53899297       0.38037113       0.44547270      -0.01201301       0.00318440      -0.00908868
Al       1.56412657       0.37921936       0.44646535       0.01315247       0.00648564      -0.01215930
Eu       3.05667007       4.60947574       3.47188999      -0.00607198       0.00542386      -0.13301057
Eu       0.13003707       2.92585646       8.22492294       0.00194577      -0.00163287      -0.13382162
Al       1.56952860       2.09439029       5.18358036      -0.00042560       0.00096144       0.01640461
Eu       3.05469468       4.61247243       6.90184438      -0.00216058      -0.00111162       0.15287887
Eu       0.13050973       2.92485344       2.17121894       0.00117752      -0.00039037       0.10718431
Al       3.05205518       1.23819545       2.81950486       0.00232005      -0.00244628      -0.01139429
Al       4.53818953       2.09588486       5.18476190      -0.00125840      -0.00439035       0.01450416
Al       3.05309494       2.95139259       0.44846438      -0.00105467      -0.00743461      -0.01448283
Al       3.05241251       1.23747109       7.56302316       0.00013860       0.00126583       0.00986879
Al       0.13106471       4.58593539       5.18556267       0.00424979       0.00008490       0.01311656
10
Lattice="3.8710105419158936 0.0 -1.2653083801269531 -0.002639364812445927 5.09537962265929 -0.00045517782564274967 0.0 0.0 6.345397472381592" Properties=species:S:1:pos:R:3:forces:R:3 sample_seed=85023 sample_index_within_seed=0 benchmark_method=C0 dft_verified=F structure_index=0 total_energy=-90.80160522460938 stress="-0.3115646243095398 0.025181790813803673 0.08180724084377289 0.025181153789162636 -1.080404281616211 0.00736269261687994 0.08180683851242065 0.007366679608821869 -0.45893168449401855" pbc="T T T"
Eu       2.82921263       3.82721406      -0.80784424       0.02874910      -0.00067692      -0.10672897
O        0.73671299       2.46317721       5.89978042      -0.03002228       0.18682057       0.00098082
O        1.94996213       2.63963841       3.33992147       0.05901366      -0.08526151      -0.00545194
B        1.34225905       3.82711505       2.99270093       0.03690369       0.00195765       0.06799206
Eu       3.73241641       1.28023478       2.44197394      -0.03447895      -0.00014989       0.09538109
B        1.34921527       1.28003053      -0.09922582       0.02347957      -0.01814143       0.02801049
O        0.73805214       0.09550598       5.89867180      -0.01268470      -0.16347133       0.01934636
O        1.94930927       5.01447690       3.34306563       0.03640375       0.07075743      -0.02791525
O        0.05835885       3.82457909       2.52081015      -0.13854699       0.02112435      -0.03674091
O        2.63394849       1.28144657       0.37848168       0.03118257      -0.01295930      -0.03487448
4
Lattice="3.6026597023010254 0.0 2.0846269130706787 1.1992735852027179 3.3971447274673876 2.0848240852355957 0.0 0.0 4.163505554199219" Properties=species:S:1:pos:R:3:forces:R:3 sample_seed=85024 sample_index_within_seed=0 benchmark_method=C0 dft_verified=F structure_index=0 total_energy=-28.598785400390625 stress="2.0597758293151855 0.019443349912762642 0.017951032146811485 0.01944367215037346 2.049330711364746 0.011548928916454315 0.01795109733939171 0.011548892594873905 2.0540382862091064" pbc="T T T"
As       3.28398099       1.47257069       5.06144345       0.00205979       0.00103293       0.00157171
Ni       2.08284164       3.17095272       2.97876417      -0.00003118       0.00140472       0.00427801
Mn       0.88250974       2.32261457       5.06090147      -0.00173687      -0.00356951      -0.00486970
Mn       2.08374265       0.62292980       2.97784783      -0.00029172       0.00113185      -0.00098001
10
Lattice="4.605262279510498 0.0 -0.03347106650471687 -1.816386623501217 4.234595131636263 -0.02634243853390217 0.0 0.0 5.050317287445068" Properties=species:S:1:pos:R:3:forces:R:3 sample_seed=85025 sample_index_within_seed=0 benchmark_method=C0 dft_verified=F structure_index=0 total_energy=-58.59196472167969 stress="-0.5688428282737732 0.4547257721424103 0.26385530829429626 0.45472562313079834 -0.10918274521827698 -0.22995388507843018 0.2638556659221649 -0.22995343804359436 0.6753209829330444" pbc="T T T"
Ga       1.35056546       2.03246503       0.32118807      -0.03626497       0.00958699       0.14369127
Co       0.49261775       4.10118174       4.18982026      -0.06775445      -0.08360718      -0.02248001
Ga       2.84730546       4.07294103       3.00931636       0.04466097      -0.01615277      -0.14141250
Fe       3.71648031       2.00114074       1.66938215      -0.00178652       0.01516342       0.00689266
Co       1.32723401       2.03740806       2.88231034      -0.04484463       0.01741615      -0.11442719
Co      -1.73088893       4.06562543       0.48417633       0.04120624      -0.01548722       0.10710160
Co       3.70365129       2.00521702       4.19219426       0.07427569       0.07834420       0.01831816
H        2.72055298       1.12022820       2.99013170       0.01397325      -0.00811014       0.01521640
H        3.29700977       0.74632201       0.36140100      -0.01512640       0.01245761      -0.00861528
Fe       0.48692260       4.10057875       1.66049899      -0.00833917      -0.00961101      -0.00428517
11
Lattice="5.1078338623046875 0.0 -2.189263105392456 -0.932370809543422 5.017937402650461 -2.1837873458862305 0.0 0.0 7.068899631500244" Properties=species:S:1:pos:R:3:forces:R:3 sample_seed=85026 sample_index_within_seed=0 benchmark_method=C0 dft_verified=F structure_index=0 total_energy=-97.2958984375 stress="-0.08368294686079025 0.07244358211755753 0.015425779856741428 0.07244433462619781 -0.10081831365823746 0.0867743268609047 0.015427532605826855 0.08677484840154648 -0.013488088734447956" pbc="T T T"
Eu       4.87883431       0.53738428      -1.57353707       0.00352933      -0.00579667      -0.03640289
F        3.99639050       2.45867318      -0.20639832       0.02032234      -0.08223858      -0.10528719
Gd       3.36976473       1.79183730       1.95682293       0.04068036       0.02439020       0.01505651
Gd       0.35180225       4.30397519       1.95761666      -0.01919439      -0.00292977       0.05612000
F        0.20582719       1.05832275       5.25064319      -0.00028847      -0.00273365       0.11670102
F        1.37188602       2.45928228       0.91862599      -0.08396340      -0.09259930      -0.06643245
F        2.34830971       3.63322823       3.00096810       0.08281548       0.10294255       0.05562717
F        4.44587332       0.01769744       0.85525629       0.00777161      -0.00616199      -0.13761917
F        1.82377045       0.01796349       1.97795190      -0.08955717       0.00323015      -0.09240422
F        2.83225633       1.05949257       4.12186221       0.07186677      -0.01665312       0.09909555
F       -0.27269276       3.63694745       4.12493645      -0.03398238       0.07855035       0.09554568
16
Lattice="2.4701790809631348 0.0 0.26438769698143005 1.1778224125795018 6.332525064366245 0.8611185550689697 0.0 0.0 11.917484283447266" Properties=species:S:1:pos:R:3:forces:R:3 sample_seed=85027 sample_index_within_seed=0 benchmark_method=C0 dft_verified=F structure_index=0 total_energy=-115.8121337890625 stress="1.9920686483383179 0.04764164984226227 0.2125495821237564 0.04764123633503914 1.527242660522461 -0.04283279553055763 0.21254919469356537 -0.04283346235752106 1.420184850692749" pbc="T T T"
Fe       2.32990804       0.20002201       8.14962945      -0.00172471      -0.07353255       0.02979276
Fe       2.45338098       5.04965587       7.08515797       0.00356202      -0.04224749       0.08117513
Fe       0.98840947       4.17052761       9.13655693      -0.00556408      -0.07698151       0.04580101
Fe       2.38014053       2.59787675       7.73769662       0.00747071       0.03708013       0.00782730
Ni       3.08151427       4.67567030       1.10687694      -0.01092074      -0.07178722       0.12527010
Fe       1.68691709       6.13682361       2.56158859      -0.01040501       0.13129361      -0.06656661
Fe       2.82482158       3.86682095       3.51846611       0.01088587      -0.13054226       0.05192482
Ni       1.57164053       1.47702028       3.50748852       0.00191767       0.06575483       0.00218270
Fe       0.55498604       2.26970127       1.32890098      -0.01431930       0.01695814       0.01447787
Ni       1.36567431       3.23113488       5.52009342       0.02394361       0.02813887      -0.21660355
Ni       1.95398025       0.76957646      11.75376208      -0.00173963       0.11046898       0.04042465
Fe       2.00803607       3.19915032      11.30905520       0.00322608      -0.07702352      -0.03380994
Fe       2.58129364       1.04521742       5.83045074       0.00680681      -0.00997590      -0.09467783
Ni       0.93100577       1.69586741       9.62002124      -0.00072313       0.07791717       0.02245490
Ni       1.44503378       5.57918245       4.84061897      -0.00279859       0.02590188      -0.07885201
Ni       2.05960376       5.61228538      10.89352247      -0.00961763      -0.01142317       0.06917880
12
Lattice="5.851933479309082 0.0 -2.021482467651367 -1.0193533245204025 5.774687032018561 -2.0450243949890137 0.0 0.0 8.964678764343262" Properties=species:S:1:pos:R:3:forces:R:3 sample_seed=85028 sample_index_within_seed=0 benchmark_method=C0 dft_verified=F structure_index=0 total_energy=-96.708251953125 stress="-1.3545693159103394 0.047139059752225876 -0.004166808910667896 0.047139715403318405 -1.1838634014129639 -0.06672815978527069 -0.0041666277684271336 -0.06672815978527069 -1.366798758506775" pbc="T T T"
Ge       0.50389087       5.22554914      -1.24528329       0.32996112      -0.06494150       0.21178305
Eu       2.19473144       2.35097108       0.26389774       0.10394102       0.13494085      -0.32916412
Eu      -0.08032012       2.70652951       3.45856518      -0.06994778       0.02260051      -0.04040480
Eu       2.93651163       0.17239326       3.47329241       0.02034938      -0.05419954      -0.04113758
Eu       4.10648697       4.65222548      -1.35593958      -0.26552036      -0.28346303      -0.02516577
Ge       2.16131440       2.32667550       5.56833098       0.03640949       0.05984453       0.17983851
Ge       3.09843052       3.44402864       3.08558917      -0.09393878      -0.12641303      -0.04195802
Ge       0.29858038       0.09547790       5.43161434       0.03900539       0.05697261      -0.12629303
Eu       5.22886765       2.49602651       4.98700837       0.08931161       0.04827799       0.11353333
Ni       4.67891774       5.32918756       3.84804338      -0.10799296      -0.12571299      -0.33637017
Ge       5.29748644       1.19896398      -1.24412373      -0.11846227       0.28394768       0.28643781
Eu       1.79045903       5.38901987       4.97186117       0.03688417       0.04814586       0.14890079
8
Lattice="4.232943058013916 0.0 0.005644847638905048 0.019423339328071023 4.594291160212394 0.027472656220197678 0.0 0.0 5.117826461791992" Properties=species:S:1:pos:R:3:forces:R:3 sample_seed=85029 sample_index_within_seed=0 benchmark_method=C0 dft_verified=F structure_index=0 total_energy=-52.94530487060547 stress="1.114963173866272 0.16632215678691864 0.022344354540109634 0.1663219928741455 2.064666986465454 0.2209700047969818 0.022344281896948814 0.22096991539001465 0.6592203378677368" pbc="T T T"
Zn       1.57518052       4.05168435       0.49488086      -0.01193534       0.09651414       0.01851247
Fe       3.67450434       0.33874862       4.27077646       0.00489119      -0.12910721       0.21342546
Zn       3.68441009       2.61311028       3.04882440       0.01285882      -0.08015694      -0.01239390
Fe       1.56539627       1.73462422       1.72119060       0.00033754       0.10620366       0.21499296
Fe       3.68445592       2.56898873       0.48910881       0.01115169       0.08456427      -0.01148142
Fe       1.56583103       1.73302403       4.36137930      -0.00535628       0.12975530      -0.18893690
Fe       1.57527815       4.09999183       3.05470114      -0.01086560      -0.10302870       0.01511749
Fe       3.67515878       0.33689037       1.80100016      -0.00108201      -0.10474452      -0.24923617
4
Lattice="2.3402249813079834 0.0 -0.8139919638633728 0.0029223850188594093 4.013117203007041 0.0010513500310480595 0.0 0.0 4.911623001098633" Properties=species:S:1:pos:R:3:forces:R:3 sample_seed=85030 sample_index_within_seed=0 benchmark_method=C0 dft_verified=F structure_index=0 total_energy=-31.161483764648438 stress="0.6305453777313232 0.0663316398859024 -0.03845355287194252 0.0663304254412651 0.19744709134101868 0.037210918962955475 -0.03845488280057907 0.037211209535598755 0.5297003984451294" pbc="T T T"
Fe       2.21167751       2.43082696      -0.12117486       0.02040363       0.00291720       0.04318965
Co       1.09550962       0.42417340       3.99740612      -0.04190948       0.00495605      -0.02113123
Co       2.18636311       2.43188351       2.34785498       0.04057544      -0.00593114       0.01224556
Fe       1.07045827       0.42501649       1.55329922      -0.01906971      -0.00194211      -0.03430397
10
Lattice="4.910707950592041 0.0 2.6462275981903076 1.5823247892499799 4.646612031214003 2.64986515045166 0.0 0.0 5.581044673919678" Properties=species:S:1:pos:R:3:forces:R:3 sample_seed=85031 sample_index_within_seed=0 benchmark_method=C0 dft_verified=F structure_index=0 total_energy=-82.02632141113281 stress="0.6484715938568115 0.09970605373382568 0.1334899663925171 0.09970968961715698 0.523883581161499 0.10844209045171738 0.1334913671016693 0.10844025760889053 0.863598644733429" pbc="T T T"
Mo       5.10317791       4.38393435       5.19990195      -0.01913479      -0.00445950       0.00076911
O        0.43707458       0.47311959       5.44714385      -0.11618572      -0.11368605       0.04230710
O        2.88266548       1.23017809       3.66685998       0.09912533      -0.08357102      -0.11319953
Eu       5.14527612       0.90089168       5.27328134      -0.02609007      -0.01373526      -0.02437223
O        5.73216886       2.88852307       9.65976698      -0.09647697       0.07846946       0.10225385
Cu       1.85786162       2.06113462       5.34471961       0.00306488       0.00485380       0.00441287
Eu       3.48352120       3.22426797       8.06962759       0.03697789       0.02631851       0.03295417
O        3.11196765       0.81783951       6.53179290       0.05323831      -0.11569291       0.09383065
O        3.27081903       3.65030172       5.22745004       0.13439697       0.10264009      -0.04399516
O        5.50951631       3.29593406       6.79175015      -0.06891539       0.11886287      -0.09496051
