17
Lattice="5.357510953103063 0.024656670673085176 -1.8445702950444935 -1.3840029600787225 5.130545471800738 -1.5223411615797768 -0.0489998420260086 -0.022221993177911084 8.533451318982612" Properties=species:S:1:pos:R:3:forces:R:3 sample_seed=85000 sample_index_within_seed=0 benchmark_method=C0 dft_verified=F structure_index=0 total_energy=-113.05857849121094 stress="-0.027753811329603195 -0.0005523002473637462 0.002657740144059062 -0.0005519535625353456 -0.03064265288412571 -0.003058148082345724 0.0026582905557006598 -0.0030585480853915215 -0.03161601349711418" pbc="T T T"
Mn       3.93817698       3.55648884       4.34599083      -0.00179706       0.01866950      -0.00884341
O        2.71330201       2.30469126      -0.70701098       0.00065650      -0.02013670      -0.01774687
Mn       1.43126282       1.07525685       0.36434468      -0.01660639       0.00712076       0.01913872
Li       1.36050014       3.53259646      -1.23198023      -0.00752105       0.00857360       0.00291413
Mn       3.07327095       0.81386918       6.47804496       0.00096688       0.01521818      -0.02684766
F       -1.01836192       4.45680328       2.90631082       0.01434074      -0.00315534      -0.00336064
F        3.70751107       4.87447788      -2.33775730       0.01750714       0.00886331       0.00843100
Mn       3.86840931       0.17460063       3.22489132       0.02260324      -0.02842858       0.01070720
Mn       0.75797857       3.27413599       3.98008712      -0.00470231      -0.02868918      -0.02704865
F        0.71834097       2.41496651       1.94209354       0.01109735      -0.00428372       0.02978614
F        4.51724302       2.09319977       2.79696302      -0.00741029      -0.02526374       0.01611453
F        1.02797839       4.83634186       0.26960783       0.04139443       0.02205332      -0.01455538
Mn       4.39686014       3.47135405      -0.77234312      -0.02038375      -0.00588118       0.01965772
O        2.32016868       4.57264567       3.54210929      -0.00655745       0.02061138       0.01673234
O        0.39916474       4.49381677       5.87978419      -0.01424199       0.00963022      -0.01796839
F        2.41080303       1.99170611       4.69779831      -0.03204879       0.01033917       0.00286788
F       -0.25844629       2.32011400      -0.70211318       0.00270291      -0.00524091      -0.00997864
7
Lattice="5.246769366816875 -0.0062614125775252594 0.0018668773506951618 0.009038440869737806 5.246825796261057 0.001226537546256353 -0.001571938068911875 -0.0010470331045365148 5.723821674586072" Properties=species:S:1:pos:R:3:forces:R:3 sample_seed=85001 sample_index_within_seed=0 benchmark_method=C0 dft_verified=F structure_index=0 total_energy=-42.77940368652344 stress="-0.032090336084365845 0.0055431039072573185 0.0009642093209549785 0.005542996805161238 -0.03007938526570797 0.0006391873466782272 0.000964323349762708 0.0006393835647031665 0.05014864727854729" pbc="T T T"
Eu       4.54546975       4.31177193       3.00425669       0.00508570      -0.00170087       0.00161686
P        4.54824718       4.30989264       0.14230357      -0.00755790       0.00799337      -0.00054135
Fe       1.91729241       4.31358701       0.14144284      -0.00198672      -0.00134754       0.00034839
Fe       4.54259154       1.68536504       0.14082555       0.00320515      -0.00195711       0.00129156
Cl       4.53822622       1.68790104       3.00217358      -0.00095306       0.00085332      -0.00157773
Cl       1.91603993       1.69334800       0.13575154       0.00646910      -0.00463966       0.00114200
Cl       1.92238533       4.31037583       3.00282962      -0.00426233       0.00079849      -0.00227976
19
Lattice="6.290183176630682 0.07989345557085156 1.1273037965425163 0.3646814076652271 5.517849069811406 3.036646895507331 -0.02986761240843926 0.050202691518648555 6.310686248582922" Properties=species:S:1:pos:R:3:forces:R:3 sample_seed=85002 sample_index_within_seed=0 benchmark_method=C0 dft_verified=F structure_index=0 total_energy=-141.71292114257812 stress="0.0355076864361763 0.0003116835723631084 0.00297208852134645 0.00031234038760885596 0.03603455424308777 -0.0003320969990454614 0.002973714144900441 -0.00033151329262182117 0.03138470649719238" pbc="T T T"
Fe       0.90930555       4.48488848       5.10220047       0.01976977      -0.01052329       0.01940491
Co       5.92488060       0.23781916       5.27735270       0.01257027      -0.00364432       0.01132591
Fe       0.25317118       1.44723958       2.00511307      -0.01445602      -0.00922275       0.00391803
Co       5.58978492       2.60797793       5.54291176       0.00204157       0.00259932       0.00276697
Fe       3.53884244       1.35770874       5.27911317       0.00302955       0.00549650      -0.01485354
Fe       3.58523966       3.07691689       6.98811936      -0.00704146       0.02277298      -0.04339927
Co       3.83065165       4.61977220       8.81999759      -0.00227891       0.00409684      -0.02294415
Co       1.51555948       3.65932774       7.60274938       0.00562410      -0.02245717       0.03792165
Co       4.84111005       5.21282546       6.30722105       0.01236384       0.00963245      -0.00048119
Fe       3.37407461       3.99113483       4.77996252       0.02623969       0.02247091      -0.03471444
Co       1.79759383       2.69917692       3.46001643      -0.02318612      -0.01726596       0.03349239
Fe       2.67297247       0.95226366       1.49795940      -0.00693097       0.02501946       0.00505750
Co       1.57761333       5.35264722       9.27426316       0.00086745      -0.00690480       0.01439765
Co       1.28227708       2.07924016       5.75802527      -0.00043003      -0.00738131       0.01938011
Co       5.87044091       4.07222746       3.86605999      -0.00027633      -0.00421553      -0.00144310
Fe       2.08188245       0.20166375       3.74182287       0.00550477      -0.01709164      -0.00292207
Co       4.20054526       2.16132950       3.13084466      -0.01636924       0.01043460      -0.01817906
Ni       5.70344424       3.37082771       7.86265249      -0.00103815      -0.00188525       0.00068270
Co       5.10099870       0.95371767       7.45513733      -0.01600349      -0.00193097      -0.00941098
11
Lattice="4.441632611759748 -0.01897332101258608 0.8421566761446009 -0.8440336563711333 4.384652868599821 0.6950073497368018 0.03422223697623826 -0.006310617854402492 4.477518431806137" Properties=species:S:1:pos:R:3:forces:R:3 sample_seed=85003 sample_index_within_seed=0 benchmark_method=C0 dft_verified=F structure_index=0 total_energy=-64.27005004882812 stress="-0.011839753948152065 -0.01129996869713068 -0.04476270452141762 -0.01129996869713068 -0.04577269405126572 0.015362821519374847 -0.044762980192899704 0.015363115817308426 0.04236430674791336" pbc="T T T"
Fe       2.76085118       2.71352995       3.15345694      -0.00786250      -0.02023154       0.00853313
Fe       0.73297120       3.31260529       1.53681172       0.00700954       0.01723583      -0.00902299
Ni       1.95727241       0.21327673       3.15104693       0.00600811       0.00201941       0.02808435
Fe      -0.05174816       0.82931768       1.57644484      -0.00128444       0.00222714      -0.00004348
Ni       2.37962927       1.42766708       0.84406164      -0.00301415      -0.00152136      -0.02712698
Co       0.38447867       2.07747578       3.82463636      -0.00133307       0.00170434       0.01771796
H        3.75232172       2.39099009       1.59161778       0.00988387      -0.02356103      -0.00807043
H       -0.25878757       3.63403012       3.09875616      -0.00971728       0.02358964       0.00809107
H        2.14141887       4.25853463       2.30668104      -0.01281273       0.00869361      -0.02681582
Co       3.14347959       3.94187031       5.34334896       0.00019389      -0.00230680      -0.01774854
H        1.35215246       1.76669269       2.38392144       0.01292876      -0.00784918       0.02640168
8
Lattice="3.949864211088391 0.02177418873958957 -1.5594530382765996 -0.43910227910250366 4.835212130311606 -0.5620118962963434 -0.031182076552499677 0.014147715989673255 4.881370150922041" Properties=species:S:1:pos:R:3:forces:R:3 sample_seed=85004 sample_index_within_seed=0 benchmark_method=C0 dft_verified=F structure_index=0 total_energy=-42.60230255126953 stress="0.032688505947589874 -0.007963066920638084 0.04127558693289757 -0.007962962612509727 -0.012617734260857105 0.010488160885870457 0.04127591475844383 0.010487818159162998 0.06676016747951508" pbc="T T T"
Ga       2.33025178       1.02804080       0.06259527       0.00627167      -0.01231023      -0.00805632
Fe       0.53082419       2.36258278       1.22213293       0.01581421      -0.01543844       0.03141696
Fe       1.21920787       0.35602502       2.64227461      -0.00573678      -0.00661172      -0.01003584
Zn       3.35380864       1.77988887       2.28091790      -0.01413267      -0.01173502       0.02483693
Zn       1.52006875       3.14921201       3.48163832      -0.00737816       0.01412952      -0.00972016
Fe      -0.24200497       4.54258285      -0.20007665      -0.02951117       0.01009822      -0.03761101
Fe       2.54996678       3.83376495       0.95939868       0.02230021       0.01990093       0.01244393
H       -0.11756474       3.90738668       1.38302125       0.01237271       0.00196669      -0.00327449
14
Lattice="4.012683673972857 0.02260252795975762 2.3588160919311623 1.2664529060637824 4.1466684901284925 2.4095521010686762 -0.057806835070432494 -0.06312712205811367 5.4254382806302015" Properties=species:S:1:pos:R:3:forces:R:3 sample_seed=85005 sample_index_within_seed=0 benchmark_method=C0 dft_verified=F structure_index=0 total_energy=-64.63655090332031 stress="-0.023006819188594818 -0.0004170738975517452 -0.005713955964893103 -0.00041683806921355426 -0.0025779830757528543 0.003615457331761718 -0.00571472616866231 0.003616027068346739 0.01705864444375038" pbc="T T T"
Ni       3.45028441       1.78266757       2.95293589       0.00392926      -0.00224866       0.00148014
Ni       1.70954592       0.25293335       1.34397814      -0.00942392       0.00704474       0.00788239
H        4.36683356       2.63866861       5.92688727      -0.00370209      -0.01501306       0.01436123
Ni       2.79119595       2.29416384       5.50091322      -0.00484462       0.01766481      -0.00332115
Ni       1.00548824       1.07245191       3.95063910      -0.00711142      -0.01439035      -0.00796168
H        0.49137827       0.54776672       5.59844728      -0.01163473      -0.01128560      -0.01136854
Mn       1.14078064       3.06345524       7.48132997      -0.02035432      -0.02402262       0.00719169
H        2.39310118       3.93494758       5.21947796      -0.03802306       0.01289925      -0.02685315
H        1.01952866       2.33632193       5.53895668       0.00239108      -0.00661011       0.01084455
H        3.11566696       3.28229529       7.91757611       0.02532440       0.00719998       0.01127529
Ni       4.63349535       3.78644319       7.17285018       0.00729140       0.00456837      -0.01722142
H        2.65960964       1.12416301       4.22914336       0.00720671      -0.00123328       0.01026963
H        2.25189401       1.68055742       7.12532193       0.04109150       0.00813350       0.01060503
H        3.34451049       0.50017980       6.17260700       0.00785979       0.01729305      -0.00718402
9
Lattice="3.9857411438104644 0.003337523063068109 1.3570621076807492 1.3134030073792278 5.801079002006014 2.6606190552053945 0.007189278647955602 -0.024570374234020087 6.510716314207698" Properties=species:S:1:pos:R:3:forces:R:3 sample_seed=85006 sample_index_within_seed=0 benchmark_method=C0 dft_verified=F structure_index=0 total_energy=-92.93573760986328 stress="-0.03240945190191269 0.0006606237730011344 -3.1722553103463724e-05 0.0006603098590858281 -0.031002219766378403 -0.001293910201638937 -3.248491702834144e-05 -0.0012952848337590694 -0.03235634043812752" pbc="T T T"
O        2.95343168       1.75752154       5.24931162       0.00131373      -0.01489286      -0.00244649
Gd       4.80348969       5.76323176       6.33771361       0.00597229      -0.00522776      -0.01426469
Sr       0.65306906       0.43906980       5.47602312      -0.00380852       0.00495230       0.01724478
Gd       3.43514571       3.53607787       3.83151372      -0.00424939      -0.00673090       0.00664578
Eu       2.29590033       3.10091497       7.17928799      -0.00645697       0.00231734       0.01246743
O        4.13480294       4.59351136       8.30388665      -0.00900092      -0.00394441       0.03175577
O        2.80047729       4.96970254       5.69101056       0.00819659       0.01291987      -0.02304625
O        3.95048068       1.78008399       2.32189493       0.00115376       0.01471667      -0.00509359
O        1.44332282       4.34092749       3.14765809       0.00687943      -0.00411043      -0.02326269
4
Lattice="5.739654067130595 -0.00026544017180742287 0.008300053488209821 0.0011717978179292237 5.73700389988768 0.01156569149991848 -0.0017865078312855923 -0.0025084058104105898 5.741398546812064" Properties=species:S:1:pos:R:3:forces:R:3 sample_seed=85007 sample_index_within_seed=0 benchmark_method=C0 dft_verified=F structure_index=0 total_energy=-32.36474609375 stress="-0.004061866085976362 0.0008184582111425698 0.005745686125010252 0.0008184440084733069 -0.0064231413416564465 0.008043454959988594 0.005745687056332827 0.008043455891311169 -0.0025516008026897907" pbc="T T T"
Sr       3.91952001       0.75439586       5.33487241      -0.00126116       0.00102635      -0.00055110
Eu       1.04913303       0.75778145       2.45857527       0.00038352      -0.00044053       0.00153554
Eu       3.91850085       3.62503951       2.47026666       0.00052930      -0.00010268       0.00020122
Eu       1.04889704       3.62442959       5.33820963       0.00034834      -0.00048315      -0.00118565
12
Lattice="4.524670853148603 0.13023733900766946 2.9851130755340196 1.8348857895018822 4.838124274975986 2.9854487576180824 0.002441529205974578 0.000881344619499004 5.973815945728864" Properties=species:S:1:pos:R:3:forces:R:3 sample_seed=85008 sample_index_within_seed=0 benchmark_method=C0 dft_verified=F structure_index=0 total_energy=-102.32840728759766 stress="-0.0008059810497798026 -0.021619319915771484 0.0003747409791685641 -0.021622151136398315 -0.05063607916235924 0.00013605962158180773 0.0003730157623067498 0.00013818872685078532 -0.05922912061214447" pbc="T T T"
Ta       3.66286110       3.86330971       6.87341117       0.00354835       0.00202184       0.00157974
Fe       4.10054057       3.58577578       9.85950350       0.02355909      -0.01438050      -0.00159066
B        3.82692246       0.11348135       6.87354219       0.00213120      -0.00085462       0.00264768
Fe       1.72892171       3.61981956       8.45780088      -0.02514072       0.00876357       0.00821421
B        4.74528392       2.53130995       5.37932043      -0.00178084       0.00132720      -0.00019534
Fe       1.72844232       3.62017317       5.29042570      -0.03106645       0.00388048      -0.01299054
Fe       3.23733873       1.31551025       5.28937308       0.02808626      -0.01009214      -0.00994044
B        4.74810520       2.53128777       8.36604016      -0.00175498       0.00226402       0.00241013
Ta       1.30542211       1.06883893       6.87519770      -0.00824435      -0.00105528      -0.00456639
Fe       3.23951779       1.31604823       8.45787629       0.02879943      -0.00855475       0.00901554
Fe       0.86649937       1.34578338       3.88699162      -0.02235419       0.01664698       0.00330322
B        3.82660556       0.11307951       3.88660526       0.00421705       0.00003331       0.00211287
8
Lattice="4.8727594058999735 -0.009333945277208319 0.0034069482271209405 -2.428083931380602 4.224728260265596 0.003213024769090904 -0.006345837694890344 -0.010845155336783362 8.729426039117332" Properties=species:S:1:pos:R:3:forces:R:3 sample_seed=85009 sample_index_within_seed=0 benchmark_method=C0 dft_verified=F structure_index=0 total_energy=-54.012699127197266 stress="0.0006931060343049467 1.349982267129235e-05 1.1238214028708171e-05 1.3617494914797135e-05 0.0006899622385390103 -2.2578777134185657e-05 1.1507121598697267e-05 -2.2503443688037805e-05 0.004081981256604195" pbc="T T T"
Cu       1.19324578       3.95986185       4.48179395      -0.00051772      -0.00027579      -0.04106699
Sc      -1.24691161       2.55606342       5.26151234       0.00020293      -0.00008847       0.00022113
Eu      -1.24364728       2.56145683       0.89684461       0.00002910      -0.00022111       0.00044779
Cu       1.19094959       1.15111604      -0.06521967      -0.00028914       0.00014346      -0.03697025
Eu       1.18809447       1.14771925       3.09872567       0.00076157      -0.00041632       0.05678522
Eu       1.19092580       3.95508738       7.42802146      -0.00049265       0.00000232      -0.05674614
Cu       1.18592106       1.14276817       6.04495046       0.00027122       0.00048588       0.04153925
Cu       1.19458261       3.96228739       1.86310779       0.00003467       0.00037011       0.03579002
3
Lattice="4.166156961776318 -0.0048317303565537425 0.003762508485839434 0.005878708363905149 3.6316297912607647 -2.0976249408932595 -0.004207240063477077 0.004440935239048376 4.195982829313645" Properties=species:S:1:pos:R:3:forces:R:3 sample_seed=85010 sample_index_within_seed=0 benchmark_method=C0 dft_verified=F structure_index=0 total_energy=-20.289262771606445 stress="-0.05755376070737839 -0.0017187525518238544 -0.0016464501386508346 -0.0017187402117997408 0.058343175798654556 0.01209015678614378 -0.0016462375642731786 0.012090027332305908 0.06540030986070633" pbc="T T T"
Eu       3.10310148       1.38098295       0.15835918      -0.00418876      -0.00148268      -0.00249234
Ni       1.01630241       2.59597435       2.25523496       0.00140760       0.00004982       0.00061730
Ga       1.01480077       0.17337449       2.25382062       0.00278116       0.00143286       0.00187505
9
Lattice="4.272808456080454 0.0017367336462725167 -0.0008945416505735745 -0.005459295874791554 6.587108410785623 -3.8035486713507565 0.0008641408834023374 0.0003239451897864873 7.605871772107255" Properties=species:S:1:pos:R:3:forces:R:3 sample_seed=85011 sample_index_within_seed=0 benchmark_method=C0 dft_verified=F structure_index=0 total_energy=-49.19196701049805 stress="0.03041415847837925 -0.0068381717428565025 -0.0019298272673040628 -0.006838110275566578 -0.005153405014425516 -0.0010235421359539032 -0.001929744496010244 -0.001023391610942781 -0.010511944070458412" pbc="T T T"
Eu       0.95479210       4.78579255       1.99355373      -0.00000751      -0.00056495       0.01983587
Mg       3.08896905       6.35882027      -3.36214762       0.00087820      -0.01181985       0.00103012
Cu       0.95440612       4.78706932      -2.45676963      -0.00034542      -0.00376970       0.00196513
Eu       0.95707401       2.05314684      -0.87906420      -0.00117860       0.01154143      -0.00525609
Mg       3.09131318       4.78614771      -0.64026025      -0.00103819       0.00093256      -0.01499068
Mg       3.09258302       3.21317266       4.24229572      -0.00000665       0.01544920       0.00508407
Cu       3.09524666       0.39551324       5.15242746      -0.00065801      -0.00073252      -0.00391000
Eu       0.95686457       0.93184560       2.92411749       0.00189961      -0.01530962      -0.00429579
Cu       3.09236798       2.58825065       1.34609304       0.00045659       0.00427343       0.00053735
11
Lattice="3.814777593805315 -0.0013105462547089916 1.0750349300860673 1.440184465702853 6.577783894704714 2.202133695355634 0.07133906481882503 -0.03681225069924122 7.051487717794575" Properties=species:S:1:pos:R:3:forces:R:3 sample_seed=85012 sample_index_within_seed=0 benchmark_method=C0 dft_verified=F structure_index=0 total_energy=-81.3546371459961 stress="-0.03648008778691292 -0.0001645760639803484 -0.0009291664464399219 -0.00016473396681249142 -0.042423997074365616 0.00037852476816624403 -0.0009294096380472183 0.00037857884308323264 -0.03374249115586281" pbc="T T T"
Mn       3.04385275       1.45479107       4.75684475       0.00258963      -0.03017200      -0.01273739
Mn       2.26238388       6.44370429       7.53408379       0.00533240      -0.03845607      -0.02064200
Sb       0.70161952       2.64957566       5.76410577       0.00309237      -0.03534663      -0.01559532
Mn       2.30378263       0.95988757       7.38094145       0.00289389       0.00866171      -0.00937768
Mn       3.88565107       4.34517838       9.07449786       0.00178786       0.01796839      -0.00008339
Mn       1.53043985       2.88250974       2.82173708       0.00564474      -0.00190476      -0.02298997
Mn       1.53491138       0.27979525       2.80265540      -0.00257286       0.04165638       0.01310958
Pd       4.54201045       5.39639550       6.74947931      -0.00311647      -0.01594951       0.00927860
Sb       1.49530897       5.67999571       2.94894711      -0.00756697       0.03873726       0.02377562
Pd       3.06016778       4.08728218       4.70000593      -0.00908853      -0.00484743       0.03609663
Mn       3.73092404       1.78630864       2.31761547       0.00100391       0.01965271      -0.00083468
9
Lattice="4.173976207300926 0.0005786213683517179 0.0002517498801187542 -2.0877868697935917 5.974289093900276 -1.211580398669356 -0.0006809612817489837 -0.002243793724900438 6.364897056225841" Properties=species:S:1:pos:R:3:forces:R:3 sample_seed=85013 sample_index_within_seed=0 benchmark_method=C0 dft_verified=F structure_index=0 total_energy=-61.616580963134766 stress="0.03740031272172928 -8.61850639921613e-05 -7.767973147565499e-05 -8.605673065176234e-05 0.038814909756183624 0.0003969364333897829 -7.773460674798116e-05 0.00039697258034721017 0.035625457763671875" pbc="T T T"
Eu       2.55437867       1.95866328       0.24105297      -0.00136957      -0.00970177       0.00122811
Al       0.46611112       5.86410728       1.71103462      -0.00046013       0.02118674       0.00491986
Al       0.46641276       2.66868832       4.33290537      -0.00010811       0.00742300       0.00691700
Ni       0.46638417       3.48081449       2.08976345      -0.00016776      -0.01318545      -0.00002378
Fe       0.46686642       1.11609276       2.46148078      -0.00060531      -0.03989973       0.02342057
Eu      -1.62101992       5.12223501       4.25310098       0.00021617       0.00982936       0.00121750
Ni       0.46646143       4.22939364      -0.19234949       0.00016002       0.00237766      -0.02118620
Ni      -1.62092859       4.64398487       1.23918548       0.00161257       0.02851558      -0.02233421
Ni       2.55342875       2.35522259       3.03688840       0.00072215      -0.00654534       0.00584114
11
Lattice="3.068546055588194 -0.03258866998800088 -0.12094834881020748 1.2205219541200418 3.0688239991691373 -0.0615567614256731 -1.4295041138573208 -0.6357104103563305 14.016892568294884" Properties=species:S:1:pos:R:3:forces:R:3 sample_seed=85014 sample_index_within_seed=0 benchmark_method=C0 dft_verified=F structure_index=0 total_energy=-71.44766235351562 stress="0.025339577347040176 -0.005948599427938461 -0.005014682188630104 -0.005948986392468214 0.03431016951799393 -0.004589695483446121 -0.00501438369974494 -0.00459011597558856 0.03295436128973961" pbc="T T T"
O        2.86730182       0.47990638       2.17127676       0.03344675       0.02624246       0.02718366
Fe       0.55541563       1.48778093       6.18986760      -0.02361353      -0.00648417      -0.02125022
F        1.85005202       2.01668174       0.21725159      -0.04176163      -0.02280721       0.00160741
Mg       0.29477887       0.85651887       0.37508407      -0.03241654      -0.01612325      -0.00657350
Fe       1.25145074       1.90682414      11.57386057       0.02862164      -0.00294706      -0.00746995
Mn       2.62116763       2.77670602       3.21190987       0.03528151       0.01551144       0.01450513
Fe       1.51384844      -0.02750042       8.82623585      -0.04036354      -0.02191503      -0.03553423
O        1.67653509       0.06373251      12.25956479       0.01251265      -0.00647494       0.00347218
O        1.25900348       1.89060615       9.55269234      -0.01105528       0.00120349      -0.00526524
O        2.18520456       0.34237097       6.93713786      -0.00470144       0.01130035       0.00239181
O        1.16340886       2.04773759       4.33994372       0.04404926       0.02249402       0.02693275
8
Lattice="6.134332996298275 -0.006479773779669602 -0.0016530440811146927 0.0023996686442799052 6.5681681849860905 -3.795881750186643 0.0013670456768626316 0.0037969613371036308 7.584840923777438" Properties=species:S:1:pos:R:3:forces:R:3 sample_seed=85015 sample_index_within_seed=0 benchmark_method=C0 dft_verified=F structure_index=0 total_energy=-64.67650604248047 stress="-0.015435399487614632 0.002620660001412034 -0.00045916764065623283 0.0026206725742667913 -0.024309905245900154 -0.0009857212426140904 -0.00045907552703283727 -0.0009857675759121776 -0.023671086877584457" pbc="T T T"
Eu       2.08558250       0.55561492       7.04173088       0.00198455      -0.04404039       0.00112050
Eu       2.09213500       3.88614446       5.11425891      -0.00209728       0.02689471      -0.03850300
Eu       5.15553389       1.66303847       1.37790492      -0.00241316      -0.02282960       0.03944623
Eu       5.15906473       4.99698614      -0.54522389      -0.00070117       0.04532763      -0.00289398
Eu       2.08947602       3.89086341       1.37930037       0.00198052       0.01934798       0.03769632
Li       2.08857478       0.59217843       3.24589491      -0.00012367      -0.00065236       0.00043367
Eu       5.15419417       1.66655801       5.11286627       0.00120163      -0.02429690      -0.03717641
Li       5.15654365       4.96320123       3.24605617       0.00016859       0.00024893      -0.00012330
8
Lattice="2.8435248151171386 -0.0009976042144595083 -0.0001451168053776965 0.0016613401169047468 5.1265903618926325 -2.543077501288833 0.00033592081106160787 0.012615758868786976 6.364694874839013" Properties=species:S:1:pos:R:3:forces:R:3 sample_seed=85016 sample_index_within_seed=0 benchmark_method=C0 dft_verified=F structure_index=0 total_energy=-63.813323974609375 stress="0.019526390358805656 -5.0758797442540526e-05 0.0001307682105107233 -5.0927494157804176e-05 0.024356599897146225 -0.007338212337344885 0.00013030548871029168 -0.00733778765425086 0.012499373406171799" pbc="T T T"
Fe       1.82313321       3.05693157      -0.02290786      -0.00144584      -0.01606879      -0.02123144
Co       1.82365238       4.36600611       2.50727412      -0.00067361      -0.00869770      -0.02657371
Fe       1.82275006       1.79275387       3.75865936      -0.00046308       0.01793311       0.01485451
Co       1.82222119       0.48636567       1.22335179      -0.00063217      -0.00460705       0.04965255
Fe       0.40108405       1.14225448       5.69278657      -0.00101053       0.01926574      -0.03564649
Fe       0.40129216       4.98892349       0.59410270       0.00463317       0.00189336       0.00116028
Co       0.40097311       2.42606212       1.86973438       0.00121142      -0.00113711      -0.01503135
Fe       0.40200963       3.72083974       4.40624032      -0.00161929      -0.00858143       0.03281576
20
Lattice="4.904754392264469 -0.009384794869545748 1.5263337303517561 2.109317158288623 5.066207483391694 2.2187924800846277 -0.004815478318423896 0.010029741276444943 8.892795530126113" Properties=species:S:1:pos:R:3:forces:R:3 sample_seed=85017 sample_index_within_seed=0 benchmark_method=C0 dft_verified=F structure_index=0 total_energy=-129.67425537109375 stress="0.03099573776125908 -0.00016220564430113882 0.0007838995079509914 -0.0001622920244699344 0.03188291937112808 0.0029388563707470894 0.0007809126400388777 0.002939064521342516 0.031872425228357315" pbc="T T T"
Fe       4.95044684       3.02294952       7.58057418       0.01694950      -0.00549531      -0.00285337
Fe       3.28294033       4.90656582       4.00711294      -0.01022635      -0.01662788      -0.00064903
Fe       3.02887094       1.45082844       4.64876945      -0.00922079      -0.02281335       0.00656912
Mg       2.03578342       1.92700145       8.02162062       0.00792835       0.01536679       0.00114965
Fe       5.83026983       2.59452589       4.25808297      -0.01606944       0.01526923       0.00922349
Fe       0.17421654       0.41092949       5.09013399      -0.01015301      -0.00096393      -0.00055964
Fe       3.45389164       3.74735611       9.90033013       0.03391813       0.00186930       0.03597629
O        2.43418267       3.21603291       3.86777337       0.00406674       0.01285172      -0.02796474
O        3.06014895       3.78077220       8.00422181       0.00527628       0.01347092       0.01687911
Fe       4.07200397       0.98110302      10.12039040      -0.02026053       0.00178446      -0.00674061
O        5.06857230       2.81979022       9.66471364       0.00607750       0.01830122       0.00997499
O        2.37471153       2.17055044      10.17022158      -0.00489491       0.01145237       0.00433119
O        4.56640981       1.28786268       3.24135642       0.00052625      -0.00337876      -0.00572708
O        5.18203894       4.36797068       3.70051321      -0.01888220      -0.01246689      -0.00531583
O        3.90139933       1.04770078       8.08487697       0.00181878       0.00079176      -0.01800732
O        1.55814809       1.68145078       6.03015432      -0.00244084      -0.00032353      -0.00365567
O        4.48626326       2.36385087       5.75491398       0.00538167      -0.00431001       0.00170241
O        1.01634495       0.23068999       8.64941107       0.00946641       0.01320682       0.00645201
O        1.54280761       0.63577964       3.55073917      -0.01316163      -0.00704557      -0.01171210
O        5.77702969       4.77962424       7.65153272       0.01389956      -0.03093940      -0.00907311
6
Lattice="2.7398721530337724 -0.0036205843073747607 0.8065371514419277 1.3075809056441716 4.527601144945277 0.6340441227201827 -0.008153217272996508 0.011109206831835205 5.085900425081507" Properties=species:S:1:pos:R:3:forces:R:3 sample_seed=85018 sample_index_within_seed=0 benchmark_method=C0 dft_verified=F structure_index=0 total_energy=-49.544857025146484 stress="0.01951492205262184 -0.0036455425433814526 0.003015689318999648 -0.0036468752659857273 0.027314715087413788 -0.0038763268385082483 0.003015883034095168 -0.0038755706045776606 0.0290820375084877" pbc="T T T"
Fe       2.66110745       0.86949055       1.67043615       0.01104640       0.03409395      -0.02607355
Fe       1.06381163       2.64336116       2.05100048      -0.01478456       0.00330263       0.03794028
W        1.86615551       1.74881640       4.37857340       0.00684760       0.00519412      -0.02931920
Fe       2.14079670       4.33734652       3.45427829      -0.01058104       0.02286872       0.03796000
H        0.36362844       0.23979677       4.41843118       0.00039280      -0.04522666      -0.00137674
Fe       2.92702867       3.60024933       5.83782316       0.00707886      -0.02023275      -0.01913083
16
Lattice="3.261503484051157 0.03519925742632714 0.06018409308232258 0.028454120363873056 7.385337244991735 -3.352935096358838 0.14500235482907048 -0.21632504041915676 7.976445971404656" Properties=species:S:1:pos:R:3:forces:R:3 sample_seed=85019 sample_index_within_seed=0 benchmark_method=C0 dft_verified=F structure_index=0 total_energy=-118.17459106445312 stress="-0.0032715308479964733 -0.0007666941382922232 0.0007182596600614488 -0.0007672400679439306 -0.0025717110838741064 0.00064009492052719 0.0007183621637523174 0.000636948156170547 -0.0023127698805183172" pbc="T T T"
Mg       1.20759753       5.11388509       2.31669754       0.01634811       0.00195678       0.00708914
Mn       1.02472120       1.63023689       2.34759666      -0.00997002      -0.01780131      -0.01905170
Mn       2.95949189       3.66409694      -0.16799668       0.02584159       0.00231491      -0.00524822
Mn       2.74571305       7.08038190       0.78105109      -0.00142323       0.00013689       0.00369726
Mn       2.57334948       3.22163984       4.87781836      -0.01210862       0.00299084      -0.00186646
O        1.19133367       2.58674571       0.56662037       0.02259174      -0.00952122      -0.01357679
Mn       1.39102199       0.84126400       7.08943472       0.02561143       0.01331642      -0.01094669
Mn       0.79562906       6.04272263      -2.40599577      -0.02216062      -0.00147932       0.00163154
O        2.35434830       4.76991017      -1.68000092      -0.01696520      -0.00597304       0.01308772
O        2.63697556       7.06917015       4.74509069      -0.04115653      -0.00595370       0.02080333
O        1.32275662       7.10664164       2.13160587       0.00602862       0.00131284       0.00576869
O        2.61685630       1.73347371       3.64932012      -0.00978456       0.00808159      -0.01582271
O        1.06534987       4.16425535       4.01193075      -0.01540133       0.02088588       0.01600072
O        2.86471120       5.02697556       1.21687989       0.01482831      -0.00484928       0.00889492
O        0.90280525       6.98584582      -0.58427623      -0.00721279      -0.00870343       0.00380576
O        3.21215198       2.08561264       6.40456744       0.02493286       0.00328565      -0.01426627
4
Lattice="2.5930677708876315 -0.0009101705173468534 0.42320703299997997 1.2630200201669504 2.265358947813992 0.42123245848218865 -0.03306374289167524 -0.01431912375884695 8.47678386135523" Properties=species:S:1:pos:R:3:forces:R:3 sample_seed=85020 sample_index_within_seed=0 benchmark_method=C0 dft_verified=F structure_index=0 total_energy=-30.34711265563965 stress="-0.12822066247463226 0.001134491409175098 -0.01038695964962244 0.0011326068779453635 -0.12693238258361816 -0.0031126884277909994 -0.010388288646936417 -0.0031112756114453077 -0.10141796618700027" pbc="T T T"
Mn       1.93145238       1.97702621       1.21452659      -0.00279873      -0.00340990       0.00323772
Ge       1.29965894       1.60891767       5.08754901      -0.00891978      -0.00497922       0.02408999
Fe       0.91987825       1.38599605       7.50926363       0.00863817       0.00458083       0.00389761
Mn       2.93792924       1.04491302       3.21163399       0.00308035       0.00380834      -0.03122523
12
Lattice="4.462306523300426 -0.003489069085654411 1.3408278609772613 2.033060151452231 3.972357038224139 1.340717042678465 -0.01572256583239363 -0.008921549857328456 8.146224003856872" Properties=species:S:1:pos:R:3:forces:R:3 sample_seed=85021 sample_index_within_seed=0 benchmark_method=C0 dft_verified=F structure_index=0 total_energy=-102.74818420410156 stress="-0.044057946652173996 0.0007885044906288385 -0.0017592681106179953 0.0007882237550802529 -0.0448455773293972 -0.0008187725907191634 -0.0017611818620935082 -0.0008190141525119543 -0.03930731490254402" pbc="T T T"
Fe       2.29584880       2.34105464       3.48267977      -0.00193785      -0.00098224      -0.01105754
Mn       4.44229464       0.92287313       4.43039781       0.01280670       0.00724557      -0.04772623
Mn       4.61065093       3.75520289       3.87740266      -0.01006257      -0.00473050       0.03700459
Fe       1.72519336       1.99232839       1.27047054      -0.00324670      -0.00446566       0.00388984
Fe       0.72411695       0.03487843       0.61138350      -0.00287401       0.01861054      -0.00426321
Fe       3.98949874       1.99088269       1.95249057       0.00928073      -0.00987872      -0.00628278
Mo       3.50155091       0.34828944       7.55448606       0.00287576       0.00167882       0.00004832
Fe       5.06390471       2.68870021       6.35196251      -0.01263228      -0.00101862       0.01277931
Fe       1.83444505       0.67418728       5.01167333      -0.00637975      -0.01393373       0.00995363
Fe       2.86542752       2.68941946       5.69217152       0.00883542       0.00666472       0.01716834
Fe       1.20748573       1.67665895       7.09774612       0.01046759       0.00696630      -0.04252119
Fe       3.36656396       2.99593337       8.01230330      -0.00713314      -0.00615647       0.03100714
12
Lattice="5.6875486616842235 -0.0011273277405702443 0.0003362358041850886 -2.8426536768008 4.926090949721937 0.000604461196602283 -0.0005534430605519408 -0.0014317733050872089 9.429237294878698" Properties=species:S:1:pos:R:3:forces:R:3 sample_seed=85022 sample_index_within_seed=0 benchmark_method=C0 dft_verified=F structure_index=0 total_energy=-75.68476104736328 stress="0.02041798084974289 8.66471091285348e-05 9.567088454787154e-06 8.658366277813911e-05 0.020316237583756447 5.7889457821147516e-05 9.561015758663416e-06 5.781404615845531e-05 0.009628656320273876" pbc="T T T"
Al       4.41258516       0.37016115       0.43675550      -0.00458093       0.00383240      -0.00001424
Al       1.52695000       0.37101212       0.43640276       0.00501080       0.00311890       0.00042406
Eu       2.97086682       4.48728595       3.37477294       0.00090735      -0.00048507      -0.00416363
Eu       0.12625689       2.84524695       8.08995330      -0.00017727      -0.00021937      -0.00640412
Al       1.52685045       2.03725114       5.15215031       0.00863593      -0.00550152      -0.00143672
Eu       2.97063626       4.48672521       6.92952115       0.00066446      -0.00001740       0.00395698
Eu       0.12665716       2.84604719       2.21249011      -0.00001941      -0.00046721       0.00825038
Al       2.97051542       1.20311460       2.79336537      -0.00075261       0.00094650       0.00267964
Al       4.41427765       2.03613321       5.15225173      -0.00889002      -0.00378190      -0.00121739
Al       2.97014819       2.87003218       0.43675260       0.00072488      -0.00619845       0.00075063
Al       2.96975153       1.20316380       7.50947403       0.00012932      -0.00045775      -0.00182087
Al       0.12783634       4.46264737       5.15230522      -0.00165252       0.00923087      -0.00100474
10
Lattice="3.86528307949766 0.00041517081410412393 -1.284089336865275 -0.001628951339415302 5.111856612907663 0.0009454315354409425 -0.019994818301926544 0.0017368041694892091 6.378411150028791" Properties=species:S:1:pos:R:3:forces:R:3 sample_seed=85023 sample_index_within_seed=0 benchmark_method=C0 dft_verified=F structure_index=0 total_energy=-90.80681610107422 stress="0.008698791265487671 -0.001076272688806057 0.007886376231908798 -0.0010774898109957576 0.041889872401952744 -0.0007407635566778481 0.00788793433457613 -0.0007383018382824957 0.02014835923910141" pbc="T T T"
Eu       2.82967360       3.83978922      -0.82939227       0.02512733      -0.00087673      -0.04105456
O        0.71784628       2.47698957       5.92947017       0.01693912      -0.01817653      -0.00414795
O        1.93700751       2.64914510       3.35190128      -0.01783484       0.01430061       0.01084645
B        1.32891504       3.84038565       3.00830768      -0.03948689       0.00000752      -0.01722333
Eu       3.71084841       1.28568401       2.45154040      -0.02927489      -0.00184151       0.03033607
B        1.34568512       1.28410352      -0.10374513       0.04263771       0.00061926       0.01225230
O        0.71926510       0.09416219       5.92894309       0.01664408       0.01921035       0.00048299
O        1.93561624       5.03175310       3.35391907      -0.01765248      -0.01438490       0.00360750
O        0.04259526       3.83928355       2.53297783      -0.01936121       0.00407873       0.01494101
O        2.63191425       1.28519205       0.37162300       0.02226231      -0.00293626      -0.01004028
4
Lattice="3.480367712664687 -0.00166976414171549 2.012987840110317 1.156955687521864 3.2823417506490298 2.013237240386759 -0.0015425763287840843 -0.001019170186881896 4.023090835980145" Properties=species:S:1:pos:R:3:forces:R:3 sample_seed=85024 sample_index_within_seed=0 benchmark_method=C0 dft_verified=F structure_index=0 total_energy=-28.694805145263672 stress="-0.15700189769268036 -0.003355778055265546 0.0024169189855456352 -0.0033562651369720697 -0.15686406195163727 0.002038806676864624 0.002416884060949087 0.002038382925093174 -0.1492752581834793" pbc="T T T"
As       3.17101997       1.42096251       4.88923824       0.00196011       0.00033463      -0.00054364
Ni       2.01043484       3.06334632       2.87713245      -0.00093996       0.00141912       0.00511260
Mn       0.84997670       2.24291277       4.88890017      -0.00200389      -0.00422197      -0.00614445
Mn       2.01216474       0.60076601       2.87647623       0.00098371       0.00246823       0.00157549
10
Lattice="4.692554150699682 -0.07973086420497566 -0.05907372939425434 -1.923765619907407 4.278181102890717 0.0035591553465504026 -0.028681663815887555 0.022841305572130523 4.96711069201567" Properties=species:S:1:pos:R:3:forces:R:3 sample_seed=85025 sample_index_within_seed=0 benchmark_method=C0 dft_verified=F structure_index=0 total_energy=-58.61764144897461 stress="0.02013053558766842 0.03317250311374664 -0.037030179053545 0.03317142277956009 0.03132040798664093 0.039045970886945724 -0.03703007847070694 0.03904645889997482 -0.023712145164608955" pbc="T T T"
Ga       1.34214908       2.01258275       0.34401631       0.02652193      -0.01706849      -0.01666601
Co       0.38818435       4.09821546       4.13136852      -0.01002056      -0.01603411      -0.01066168
Ga       2.81263068       4.05158570       2.93563679      -0.02597611       0.01638692       0.01542722
Fe       3.74402627       1.95897337       1.63167700       0.00525479       0.01519223       0.00702721
Co       1.31199454       2.02437832       2.81139884       0.02836210      -0.02041221       0.00132030
Co      -1.84900348       4.11912990       0.52756770      -0.02934688       0.02054293      -0.00275210
Co       3.73662890       1.98955098       4.11529377       0.01358964       0.01348452       0.00979836
H        2.73104763       1.09401088       2.93686305       0.00221688       0.00116770       0.01990288
H        3.34860008       0.69048446       0.33596287      -0.00340722       0.00092925      -0.01606975
Fe       0.41187896       4.10437021       1.64756614      -0.00719464      -0.01418862      -0.00732643
11
Lattice="5.118461384114133 -0.0008943127254990742 -2.1921208903140257 -0.93605402348917 5.0326445314124495 -2.1886554876134974 -0.017951165901371944 -0.024404632101536376 7.036244726704281" Properties=species:S:1:pos:R:3:forces:R:3 sample_seed=85026 sample_index_within_seed=0 benchmark_method=C0 dft_verified=F structure_index=0 total_energy=-97.30545043945312 stress="0.017531661316752434 0.007783953100442886 -0.0007752618985250592 0.007784503046423197 0.014428147114813328 0.010110410861670971 -0.0007759323925711215 0.010111960582435131 0.022382179275155067" pbc="T T T"
Eu       4.88864212       0.53600204      -1.58432406      -0.00007223       0.00074673      -0.00237138
F        3.99898779       2.44371146      -0.23873744      -0.00286704       0.01411840       0.00930116
Gd       3.36675593       1.78222596       1.93407074      -0.00270016       0.00079784       0.00211520
Gd       0.33839801       4.29978417       1.93590330       0.00267172      -0.00152069       0.00172224
F        0.19089906       1.04095461       5.23897006      -0.00125615      -0.00090453      -0.01607367
F        1.35652420       2.44441264       0.89347423       0.01148320       0.01485197       0.00192684
F        2.34825952       3.63717704       2.97715878      -0.00979386      -0.01473053      -0.00306433
F        4.44985427       0.00765728       0.82054641       0.00133674       0.00267938       0.01403898
F        1.80849990       0.00947619       1.95175759       0.01587190       0.00151187       0.00959975
F        2.83244916       1.03948827       4.10678517      -0.01568849      -0.00125626      -0.00866503
F       -0.29364815       3.63819268       4.10894313       0.00101483      -0.01629371      -0.00852987
16
Lattice="2.44140622699556 0.3006911999395724 0.10963329695476541 1.886343551963651 6.52334717422721 0.8112269207598104 -0.7390975312302085 0.05313173681857693 11.84720919164889" Properties=species:S:1:pos:R:3:forces:R:3 sample_seed=85027 sample_index_within_seed=0 benchmark_method=C0 dft_verified=F structure_index=0 total_energy=-116.57772827148438 stress="0.008912325836718082 -0.0026896654162555933 0.0019024009816348553 -0.0026898302603513002 0.009519767947494984 -0.0003513577103149146 0.0019020471954718232 -0.0003522683400660753 0.01137603260576725" pbc="T T T"
Fe       1.70464621       0.38359956       7.86107011      -0.00487243      -0.00649980       0.00737737
Fe       2.37306182       5.17370811       6.86791320      -0.04048876       0.00642862      -0.00862749
Fe       0.78533627       4.24427127       8.98220288      -0.01476895      -0.00532511      -0.00805593
Fe       2.05336378       2.75467186       7.42405530      -0.01110413      -0.00600659      -0.00630647
Ni       3.97522088       5.18320400       1.19397825       0.00603431       0.00743025      -0.00126917
Fe       2.58775412       6.65943308       2.64720433       0.00508035       0.00832064      -0.00275345
Fe       2.60717825       4.27147013       3.27571874      -0.02049435       0.00755513      -0.01213447
Ni       1.81899377       1.92040621       3.41936984       0.03672459      -0.00456312       0.01721118
Fe       0.79733825       2.52719763       1.30705257       0.04026264      -0.00078042       0.01081349
Ni       1.27784530       3.40214901       5.26872234      -0.03052586       0.00491526      -0.00685542
Ni       1.34252867       1.13156731      11.63921906       0.01505719       0.00334488      -0.00308252
Fe       1.61923640       3.54082939      11.11972870       0.00079379       0.00301523       0.00153707
Fe       3.03882903       1.35753502       5.63427120       0.03339776      -0.01566976       0.02109230
Ni       0.43921294       1.81439327       9.47638709      -0.01067478       0.00096820      -0.00147867
Ni       1.29064690       5.78455147       4.69464314      -0.01479753       0.00191346      -0.00883348
Ni       2.16383218       5.91428986      10.83166086       0.01037618      -0.00504701       0.00136573
12
Lattice="5.895429888594248 0.0035198539985979004 -2.046467799548777 -1.0198446968716284 5.8030075782069375 -2.0598446755851603 -0.01938006312120978 -0.007056973670274264 9.019378538316168" Properties=species:S:1:pos:R:3:forces:R:3 sample_seed=85028 sample_index_within_seed=0 benchmark_method=C0 dft_verified=F structure_index=0 total_energy=-96.8121337890625 stress="0.019422389566898346 -4.1240557038690895e-05 0.0007496449397876859 -4.108566645300016e-05 0.019326990470290184 0.0006547064986079931 0.000749655649997294 0.0006547432858496904 0.020190883427858353" pbc="T T T"
Ge       0.54411646       5.25824627      -1.22254983       0.00587821       0.00407216       0.00301041
Eu       2.21216293       2.37445688       0.17038069      -0.00300071       0.00062218      -0.02270972
Eu      -0.10253182       2.74103069       3.49946059      -0.02279031       0.02440593       0.01090209
Eu       2.96911293       0.16485708       3.50840864       0.02617865      -0.01646926       0.00767267
Eu       4.08532858       4.61392995      -1.41823518      -0.00891048      -0.01446058      -0.01185529
Ge       2.17698086       2.34543219       5.63779192       0.00356115       0.00638267       0.02237802
Ge       3.08134229       3.41831856       3.10553441      -0.01944829      -0.02370721       0.01005977
Ge       0.31298483       0.12226205       5.42981887       0.01669501       0.02221920      -0.01583362
Eu       5.26667739       2.51326586       5.02322875       0.00297105       0.00077179       0.00231894
Ni       4.68573948       5.33534443       3.80268994      -0.00546985      -0.00823043      -0.02185924
Ge       5.34037622       1.23595954      -1.21697559       0.00269330       0.00409904       0.00954462
Eu       1.80258077       5.41570816       5.01643688       0.00164230       0.00029450       0.00637136
8
Lattice="4.235272797909777 -0.008563956402488079 0.0026702194556021287 0.010137636672832665 4.49035447561879 0.01402176845508 -0.0036252576047991537 -0.015097445019177272 5.139417510664031" Properties=species:S:1:pos:R:3:forces:R:3 sample_seed=85029 sample_index_within_seed=0 benchmark_method=C0 dft_verified=F structure_index=0 total_energy=-52.991390228271484 stress="0.05879057198762894 0.006517447996884584 -0.001259154174476862 0.0065177250653505325 0.07569125294685364 0.001312647364102304 -0.0012592854909598827 0.0013126676203683019 0.062137529253959656" pbc="T T T"
Zn       1.56683139       3.99139439       0.48519080       0.00201011       0.04240622      -0.00066020
Fe       3.67374248       0.27385350       4.33216553      -0.00128253      -0.02514055      -0.03036782
Zn       3.67990794       2.50387561       3.05128633      -0.00237836      -0.04799743      -0.00064983
Fe       1.56097660       1.72247670       1.76495940       0.00127762       0.02733959      -0.02308255
Fe       3.68146432       2.51727950       0.48156910      -0.00055736      -0.01995912      -0.00042996
Fe       1.55910986       1.71546645       4.33034455       0.00153560       0.02545036       0.02500830
Fe       1.56522224       3.97674536       3.05479013       0.00063820       0.02450866       0.00049340
Fe       3.67561785       0.28187737       1.75630078      -0.00124330      -0.02660773       0.02968868
4
Lattice="2.335891765870469 -0.0004814902885628067 -0.8126579883452115 0.001899355703785593 4.01289312699631 0.0004978053144396562 0.0005523328153817632 -0.0006761885894712407 4.905161755756126" Properties=species:S:1:pos:R:3:forces:R:3 sample_seed=85030 sample_index_within_seed=0 benchmark_method=C0 dft_verified=F structure_index=0 total_energy=-31.161893844604492 stress="0.060753848403692245 0.018806131556630135 0.009201271459460258 0.018807191401720047 -0.11026480793952942 0.008123756386339664 0.009202517569065094 0.008123868145048618 -0.011218174360692501" pbc="T T T"
Fe       2.20738442       2.43019679      -0.12037880       0.01727723       0.00259494       0.03696183
Co       1.09316589       0.42340216       3.99184573      -0.03594318       0.00372346      -0.01967490
Co       2.18272657       2.43077359       2.34489704       0.03508709      -0.00455054       0.01258272
Fe       1.06826019       0.42447458       1.55074211      -0.01642103      -0.00176789      -0.02986963
10
Lattice="4.90970582730124 -0.008841428236211238 2.63271918969476 1.5740661904850644 4.6496034828432915 2.635539751660902 -0.010019735972420412 -0.008150709033326854 5.571148686816183" Properties=species:S:1:pos:R:3:forces:R:3 sample_seed=85031 sample_index_within_seed=0 benchmark_method=C0 dft_verified=F structure_index=0 total_energy=-82.03485107421875 stress="0.03629617393016815 0.00022268705652095377 0.0020763769280165434 0.00022300549608189613 0.03640800341963768 0.0017834914615377784 0.002081734361127019 0.0017842781962826848 0.0397687666118145" pbc="T T T"
Mo       5.09251791       4.37904726       5.17504369       0.00295168       0.00096780       0.00021249
O        0.42145046       0.45418799       5.44420281       0.01899606      -0.02236775       0.03138580
O        2.88940051       1.22117790       3.64657718       0.03470293       0.02730107       0.00366575
Eu       5.13617657       0.88790898       5.24983377      -0.01884662      -0.01167993      -0.02870027
O        5.70387915       2.87659000       9.63365891      -0.03852859      -0.02717566      -0.00829205
Cu       1.84792097       2.05580958       5.32975088       0.00146768       0.00278704       0.00485073
Eu       3.47231553       3.21818720       8.04908946       0.02441406       0.01616101       0.03690991
O        3.10608198       0.79397980       6.51539626       0.00943264      -0.02583998      -0.03730929
O        3.26698769       3.65539966       5.19826784      -0.02234548       0.01746079      -0.03699999
O        5.49207692       3.29918026       6.76286339      -0.01224370       0.02238593       0.03427678
