4
Lattice="3.6341582350225505 -0.006288830941917438 -1.0579655593337933 -0.6882618368188582 5.168889110473385 -2.43850487582387 0.0023538986692900068 -0.005330002154050863 6.788153256736843" Properties=species:S:1:pos:R:3:forces:R:3 structure_index=0 total_energy=-39.08573532104492 stress="0.019570982083678246 0.012517417781054974 -0.011882645078003407 0.012517684139311314 -0.00708178011700511 -0.013738242909312248 -0.011882763355970383 -0.013738720677793026 -0.04470881447196007" pbc="T T T"
Eu       2.01396816       4.16994107       0.55831232      -0.00171471      -0.00915438       0.00411421
Eu       0.91667290       2.24473734       3.60033425      -0.00077129      -0.00081116      -0.02001962
Eu       1.80345559       0.62287440      -0.09831722       0.00263989       0.00642646       0.00801002
Rh      -0.35354318       3.21575898      -0.79038340      -0.00015388       0.00353904       0.00789543
