19
Lattice="5.580986022949219 0.0 0.020645607262849808 0.19933373232929527 5.509504918852988 -2.1042134761810303 0.0 0.0 9.161321640014648" Properties=species:S:1:pos:R:3 pbc="T T T"
Ag       0.78006834       1.87954060      -0.48691483
Ag       3.42275315       4.35866800       1.36449241
Ag       0.86275461       2.97422313       2.61865781
Ag       0.58371848       5.32647198      -0.12002379
Ag       0.64903506       3.98109460       5.86389165
H        3.13754861       1.29839605       1.91932160
O        2.78698541       4.47707075       6.43630205
O        4.52509200       3.69521057       7.67095584
O        5.01631747       4.70926628       2.65936645
Zn       0.58296086       0.59240356       5.36396601
O        5.12220673       1.55678438       1.33667662
O        5.56156159       0.49560941       7.26851307
O        2.65375030       2.26116192       7.23347848
Ag       3.80868316       5.25667454       4.54473315
O        2.26912405       4.79470110       3.18011876
O        1.57640134       3.59977754       0.58636219
O        0.40627863       2.33871105       4.56628548
N        3.34946712       3.43095478       7.11553509
O        2.29443742       1.17025499       2.40747492
