19
Lattice="5.603947825159054 0.03681356844125125 0.26713991313032315 0.14319494011559833 5.390185769018887 -2.0056563061810837 0.40528206533201333 0.08151473051322293 8.984047925597668" Properties=species:S:1:pos:R:3:forces:R:3 structure_index=0 total_energy=-82.81375885009766 stress="-0.023641400039196014 0.0011693357955664396 -0.006566449534147978 0.0011707398807629943 -0.026616863906383514 0.0013136800844222307 -0.006568576209247112 0.001312822918407619 -0.018948718905448914" pbc="T T T"
Ag       0.66197169       1.89915439      -0.47266217       0.00568637      -0.00523429      -0.00075385
Ag       3.61156680       4.34858197       1.46671223       0.00364599      -0.03238454       0.00674340
Ag       1.00820825       2.85862097       2.60961278      -0.01747113       0.00458108       0.00416139
Ag       0.55927106       5.16614308       0.00145453      -0.00299098      -0.00878161      -0.00778333
Ag       1.06238772       3.96885291       5.70333128       0.04167863      -0.00328350      -0.03144672
H        3.13268264       1.38552808       1.99391819      -0.03332087      -0.01298435       0.00871149
O        3.15289459       4.47869460       6.66466954       0.00678149       0.01352227       0.01302758
O        4.66082673       3.56279825       7.96111228      -0.01480031      -0.01387756       0.03493333
O        5.41998309       4.61745373       2.81918629       0.01026351       0.00721395      -0.00453086
Zn       1.07929744       0.70815369       5.16642150       0.02637455       0.01404466      -0.01960285
O        5.06303970       1.43247323       1.43349866      -0.01092619      -0.01941791      -0.00723559
O        5.90600370       0.68521093       7.38270563       0.02233443      -0.00355223      -0.00372607
O        3.01682045       2.32163498       7.13766304      -0.00614518      -0.00031400      -0.01821098
Ag       4.23948253       5.41352917       4.52584540       0.01882522       0.03061898      -0.00417334
O        2.60464035       4.81520129       3.44446589       0.02203456       0.02708569      -0.00351879
O        1.57442520       3.43359461       0.69748674      -0.00233039      -0.00128444      -0.00192732
O        0.40130806       2.32555831       4.47188040      -0.02481927       0.00074884       0.01102701
N        3.62611834       3.44652548       7.25212876      -0.00332206       0.00113666       0.00823685
O        2.34963676       1.21344712       2.58837082      -0.04149836       0.00216183       0.01606869
