10
Lattice="4.106114387512207 0.0 0.10003893077373505 0.07058968833103953 7.2450880266421 0.21150943636894226 0.0 0.0 8.531841278076172" Properties=species:S:1:pos:R:3 pbc="T T T"
Pr       3.11318667       5.02920960       3.29671157
Pr       1.03850524       2.81745698       5.15020433
Al       1.07151176       6.42035396       5.45114112
Pr       3.10582616       4.74034906       7.58180287
Pr       1.03345408       2.38020317       1.29678595
Pr       3.06992241       0.75869604       7.20254768
Al       3.07620353       0.98721204       3.73723961
Ni       1.00841564       0.02688005       2.96319716
Al       1.06274744       6.26481394       0.87740359
Ni       3.06302520       0.05847590       1.42077556
