10
Lattice="4.227940090343415 -0.020542117787683466 0.050301957588872695 0.03363988332320064 7.105313974956397 0.22121039532634532 -0.10129634518080645 0.014866087285656611 8.447738214890759" Properties=species:S:1:pos:R:3:forces:R:3 structure_index=0 total_energy=-49.67828369140625 stress="-0.0057225520722568035 0.004134193062782288 0.004402266349643469 0.004134461749345064 -0.0010111350566148758 -0.004708264023065567 0.0044021145440638065 -0.004708809778094292 0.0006780877592973411" pbc="T T T"
Pr       3.14068032       4.92609688       3.23181484      -0.00058470       0.02039790      -0.00155361
Pr       0.99387821       2.74856872       5.08718722      -0.00309165      -0.02964143      -0.00355847
Al       1.00622537       6.29418546       5.40706528      -0.00015448      -0.00055797       0.00013366
Pr       3.08584670       4.63739882       7.46282513       0.00230105      -0.01713434      -0.03726672
Pr       1.03607478       2.32513319       1.29472866      -0.00195111       0.00511909       0.03751515
Pr       3.07187002       0.75447943       7.10457653       0.00006123       0.02799379       0.02016734
Al       3.11525806       0.97472170       3.68343628       0.00107437      -0.01552431      -0.00238014
Ni       1.00562642       0.02681548       2.89874896      -0.00433150       0.00582205       0.01246188
Al       1.05867554       6.13043952       0.86543816       0.00024787      -0.02421162      -0.01873218
Ni       3.13556583       0.06072265       1.36404904       0.00642891       0.02773679      -0.00678684
