6
Lattice="3.6086569260207524 -0.0010458803577028755 2.085508530672101 1.2028787010663016 3.4026150714629546 2.085395929826839 -0.0017982500002091406 -0.0010953460860026554 4.167870461785968" Properties=species:S:1:pos:R:3:forces:R:3 structure_index=0 total_energy=-30.632858276367188 stress="-0.05104851350188255 0.004929840564727783 0.01090256217867136 0.004929955583065748 -0.04363749176263809 0.006048634182661772 0.01090329885482788 0.006049645133316517 -0.05021468177437782" pbc="T T T"
Be       0.52263562       1.44367597       1.97196312      -0.01126930      -0.00250921      -0.01736775
Be       0.52173345       1.44380666       4.06362330      -0.01272226      -0.00826873       0.02237761
Be       2.33357478       1.44383243       3.01864726       0.02413396      -0.00740547       0.00108113
Fe       2.32816476       0.16939553       5.10344983      -0.00174930      -0.00791236      -0.01131765
Be       1.12613372       3.15191027       3.01862094      -0.00031583       0.02370479      -0.00122031
Ni       2.32821881       2.72084340       5.10234244       0.00192280       0.00239108       0.00644706
