11
Lattice="5.438779830932617 0.0 -1.6173288822174072 -0.7159339944126158 6.793902534027987 -2.4203507900238037 0.0 0.0 9.982305526733398" Properties=species:S:1:pos:R:3 pbc="T T T"
Eu       3.44770117       1.18129985       1.81189036
Eu      -0.09687627       5.68617012      -0.17120883
Eu       2.27891428       0.81468081       7.85976337
Eu       3.70439807       6.56344654       2.68353355
Ni       4.52151982       6.12404622       5.43593677
Eu       2.03789972       4.64086208       7.04427952
Pb       2.99834291       4.14020889       0.29639463
Eu       0.87183515       4.26939423       3.10834763
Pb       1.32557092       1.32126927       4.62931235
Eu       4.30263795       3.32186315       4.69363293
Eu       0.02021432       2.12256183       0.23958260
