10
Lattice="4.467494010925293 0.0 -0.9413052797317505 -0.21321950316246327 4.588585172998622 -0.9937536716461182 0.0 0.0 11.120109558105469" Properties=species:S:1:pos:R:3 pbc="T T T"
Gd       3.53446042       2.52962925       2.01639215
Gd       2.57064506       1.49909284       8.55475028
Gd       1.88113207       3.16285843       5.27843832
Pb       0.20954748       3.76304651       8.41738315
Gd       4.21621314       0.85803195       5.25531802
O        3.05144331       2.01260380      -0.28000664
Sm       2.94496849       4.30803251      -0.77654869
O        3.99882330       3.03436302       4.22683819
Pb       1.42684388       0.26106941       3.08375897
O        2.10745440       0.99224641       6.32924312
