11
Lattice="3.168644428253174 0.0 -0.6671559810638428 -0.2534916446879807 5.099317424474526 -1.2140638828277588 0.0 0.0 7.794508934020996" Properties=species:S:1:pos:R:3 pbc="T T T"
Fe       2.79480021       1.91674987       1.79196356
Fe       0.58147880       1.11413207       6.97819973
Fe       0.82397339       4.11734353       0.29184686
H        1.73836065       0.83273303       4.59925825
H        2.81575467       4.47840066       1.89032878
O       -0.10716195       3.40271927       3.67041134
O        1.90576414       1.38855893       5.38474706
Fe       1.74776282       3.49312115       4.62866762
O        0.41725783       4.22357306       6.19648933
O        0.95771377       2.13159106       0.83877924
O        2.62956657       4.97489232       0.99446950
