5
Lattice="6.012654413347779 0.013216128690405398 -0.041542143324097766 -0.04623259772482111 6.01261669598341 -0.051807404114840305 0.011814237893911278 0.014958568314365667 6.012892569551031" Properties=species:S:1:pos:R:3:forces:R:3 structure_index=0 total_energy=-33.1500129699707 stress="-0.003349543083459139 -0.019058728590607643 -0.01691252365708351 -0.01905878633260727 -0.003235029522329569 -0.02135353535413742 -0.016912532970309258 -0.021353507414460182 -0.0026972319465130568" pbc="T T T"
Eu       5.61784960       0.56539635       2.67039772       0.00021756      -0.00033379       0.00198746
Eu       5.60083417       3.57775945       5.65191525       0.00015003      -0.00100073      -0.00039943
Zn       5.62576500       0.57076893       5.67733391      -0.00247344       0.00165167      -0.00153990
Na       2.58834024       3.56526767       2.66596460       0.00008202      -0.00015251      -0.00008313
Eu       2.61848890       0.56585163       5.69755814       0.00202382      -0.00016462       0.00003500
