11
Lattice="4.027206987542498 -0.0031155344851035087 -1.2230174936908838 0.09410479792828597 4.631271177216795 0.29800323215731883 0.005089968712415188 0.04537175589691389 7.258266130881722" Properties=species:S:1:pos:R:3:forces:R:3 structure_index=0 total_energy=-82.12275695800781 stress="-0.010626728646457195 0.00019127747509628534 0.003061361378058791 0.0001914965978357941 -0.001758417347446084 0.00047543671098537743 0.0030612333212047815 0.00047533083125017583 -0.0018698193598538637" pbc="T T T"
Ge       0.94631743       2.27069340       2.10449751       0.00439262       0.02149704       0.00375302
Fe       1.39487362       4.46569473       3.57490776       0.00228594      -0.00606898       0.00534371
Fe       0.24520556       2.78596539       7.03685257       0.00498807      -0.03072857       0.01693655
Fe       1.71092475       1.93260073       4.62215292      -0.00214899      -0.00286273      -0.00258075
Fe       2.86008198       3.60892138       1.15995134      -0.00502652       0.04069210      -0.00965918
Ge       2.15897105       4.12487085       6.09285643      -0.00217384      -0.01554716      -0.00485416
Fe       3.88029470       0.71171518       4.52817524      -0.00203110       0.00851958      -0.01396086
Ge       3.56665250       3.19734053       3.48740351      -0.00198992      -0.00102259      -0.00451265
Fe       2.43854301       1.55953087      -0.22049873      -0.00139160      -0.04277980      -0.01152609
Fe       0.56728102       0.15953295       0.86183062       0.00233354       0.03842827       0.00726712
Fe       3.15854419       1.05074635       2.14820631       0.00076180      -0.01012717       0.01379347
