8
Lattice="4.212352752685547 0.0 -1.375302791595459 -2.282714569834483 5.170054802977481 0.20255468785762787 0.0 0.0 7.151084899902344" Properties=species:S:1:pos:R:3 pbc="T T T"
Eu      -0.95359836       4.98991290       0.60925230
Zn       1.78133255       4.42914067       1.84218346
Eu       0.31027356       4.00895778       4.49165588
Pd       2.08660071       1.85125039       2.76348013
Zn       2.91043711       1.97422474       5.28310727
Zn       0.40194761       1.06252441       4.73833929
Zn      -0.46290576       2.02511016       2.09668731
Pd       1.19556871       2.72333853       0.05121065
