6
Lattice="4.007585048675537 0.0 -1.3301057815551758 -1.3455751631033765 4.242506433906311 -4.040611743927002 0.0 0.0 6.701984882354736" Properties=species:S:1:pos:R:3 pbc="T T T"
In       3.76028295       0.48532077       1.10331233
Ga       0.39306107       2.57153623      -2.32543465
In       2.45300711       0.51045733       3.86863687
Ga       1.11857909       0.43490653      -0.14922016
Ir       1.78519920       2.61941042       1.85359472
In       3.12728182       2.60858138      -0.79881345
