10
Lattice="5.202746391296387 0.0 -0.08379550278186798 -1.2794816267956721 5.052551557377079 -0.11187426745891571 0.0 0.0 5.853618144989014" Properties=species:S:1:pos:R:3 pbc="T T T"
O       -0.05402823       0.70686988       1.64595813
Re       0.78137056       1.79848147       0.23273250
Ba       2.38722264       0.53599659       3.16141974
Sm       2.77190524       4.28904185       0.13707140
O       -0.07030757       0.68226539       4.75956422
O        1.63040391       2.87840912       4.66933286
O        2.27299748       0.63189043       0.23727447
O        1.64562512       2.89565299       1.56410864
K        4.39272222       3.04310898       3.07866066
O       -0.68190680       2.93754192       0.22931178
