10
Lattice="5.336145685075148 0.027310657944569522 -0.054719974066784 -1.2857140784409058 5.17805884906769 -0.06986274966148642 0.03401312145740705 0.05907309895468031 5.934345657002305" Properties=species:S:1:pos:R:3:forces:R:3 structure_index=0 total_energy=-72.31673431396484 stress="-0.029848888516426086 0.009057640098035336 -0.0016000291798263788 0.00905694905668497 -0.02538909949362278 -0.002272237092256546 -0.0016001015901565552 -0.00227188179269433 -0.020676935091614723" pbc="T T T"
O       -0.01951430       0.72172921       1.69974793      -0.01305595      -0.01285619       0.00768022
Re       0.81100374       1.85034195       0.25940785       0.00014192      -0.00092912      -0.00022477
Ba       2.18333012       0.82477035       3.22928940       0.00474057      -0.00189054       0.00021188
Sm       2.85481044       4.43840995       0.19721462       0.00879427      -0.00579833      -0.00050725
O       -0.01075607       0.73430201       4.80497606      -0.00837119       0.00315325      -0.00649534
O        1.73893030       2.98888254       4.75347921       0.00786670       0.01504751      -0.00688341
O        2.30543644       0.68823007       0.26279572       0.01214868      -0.00973773       0.00100643
O        1.73469318       2.97225663       1.64854467      -0.00459999       0.00705452       0.00547637
K        4.72684747       3.02488519       3.16975463       0.00942477      -0.00849410      -0.00095694
O       -0.63585868       2.97524185       0.25558529      -0.01708984       0.01445132       0.00069283
