11
Lattice="5.776193618774414 0.0 -2.027097702026367 -2.959241347453428 5.024182524241435 -1.933769941329956 0.0 0.0 6.1323747634887695" Properties=species:S:1:pos:R:3 pbc="T T T"
Mn      -0.28553637       1.84905415       1.94490913
F       -0.27711403       3.79735805       1.94316656
F        1.62768363       2.00338608       3.12906127
Eu       1.86429750       0.52235010       5.04526000
Mn       3.33077098       3.13796781       2.98904434
F        0.83724504       1.90154760       0.37017275
F        2.79372288       4.14539463       1.42299762
F        3.75489471       2.00008673      -1.50579527
F       -0.78097906       4.12848955      -1.12831373
F        4.35862637       1.79954501       1.51587240
F        2.53385952       4.90073662      -2.02339641
