12
Lattice="5.258916759106333 0.007273999299503237 -1.9011440588066817 -2.8916246227319298 4.5834546663190565 -1.5480286483426065 0.005731081725424573 -0.009871105426746253 5.650189281264328" Properties=species:S:1:pos:R:3:forces:R:3 structure_index=0 total_energy=-78.25604248046875 stress="0.01786283403635025 0.003212715731933713 0.0018279760843142867 0.003211425384506583 0.019482092931866646 -0.00544264679774642 0.0018293430330231786 -0.00544291827827692 0.020305734127759933" pbc="T T T"
O        0.36363951       1.52267552       0.71300100       0.02582422      -0.00646168       0.01686912
Fe       1.36079994       1.84396659      -0.88044507      -0.01282713       0.01104564      -0.01374718
F        2.67020834       2.12645379       3.05120466       0.00026686      -0.00729591      -0.01015795
Cr      -0.52394182       2.83729715       1.88375112      -0.01195462      -0.01021412      -0.02704945
O       -0.87657275       4.11934564       0.37306420       0.02059279      -0.02161825       0.02261680
Cr      -2.46229250       4.17119734      -0.70408846       0.00821090      -0.01098791       0.01338902
O       -0.10817998       1.76889077       3.54098030      -0.02380976       0.01685674      -0.01325938
Fe       3.45441257       0.80429864       1.67401060       0.00439829      -0.00963865       0.01116631
O        3.05908292       1.81421234       0.09117718      -0.01123238       0.01896502      -0.02288630
F        1.56916009       3.89818177      -1.03960136       0.00642018      -0.00479615      -0.00532019
F       -1.39843989       4.27414524       3.21482058      -0.00875574       0.02701398       0.01891276
F        1.14907032       4.07226035       1.86196734       0.00286645      -0.00286861       0.00946644
