11
Lattice="5.298785588687176 -0.04499170738301847 -2.5813772856432857 -1.4061055617852785 5.189097020592176 -2.4330296436892547 0.015661928824257387 0.05394558080638256 6.4803355749444105" Properties=species:S:1:pos:R:3:forces:R:3 structure_index=0 total_energy=-93.41643524169922 stress="-0.011530949734151363 0.0063985069282352924 0.027369221672415733 0.006398236844688654 0.003617929993197322 0.007639456074684858 0.027368655428290367 0.007637413684278727 0.029320145025849342" pbc="T T T"
O        1.81230709       0.52638635       4.39250969      -0.00663399      -0.02420038      -0.02704078
O        3.31375006       2.87870650       1.34373876       0.00087840      -0.00622821       0.00615235
O        0.67194352       2.74109253       2.50167872       0.01141614       0.01381786       0.01136006
Sr       0.27293995       2.48830152      -1.38038092      -0.00144014      -0.01019845       0.00733045
Eu       2.24822656       0.87432270       2.07345742      -0.01935825       0.03095761      -0.01457298
Eu       3.97834698       4.04831233      -0.64667062       0.01407120      -0.02750009       0.00037691
O       -0.81343352       4.44698881      -0.30376890      -0.00899908       0.02833755      -0.00717051
O        4.32682813       0.47935736       3.01943036       0.00197615       0.00049251       0.02046940
Eu       2.43742917       4.67514398      -3.90175521      -0.01701234      -0.02502978      -0.00710446
O        1.87195323       4.37908855      -1.70061578       0.00834744      -0.01171772       0.01553129
O        0.10120312       2.07281199       1.36363291       0.01675418       0.03126905      -0.00533162
