10
Lattice="5.743335481375363 -0.008818371319460963 0.061410923240923086 -2.8402681955174116 4.99900643254119 -0.0039046006665022625 -0.053524924599791725 -0.04029446816104781 7.82725264537467" Properties=species:S:1:pos:R:3:forces:R:3 structure_index=0 total_energy=-46.434104919433594 stress="-0.0024829935282468796 0.005505701526999474 0.012910855934023857 0.005505983717739582 0.0059980652295053005 0.005617175251245499 0.012910992838442326 0.005617168266326189 -0.01952686905860901" pbc="T T T"
La       1.65909071       3.97449498       1.29246357       0.04069363      -0.02324139      -0.01228147
La       0.14922958       1.46137146       6.68918213       0.04502342      -0.02003433       0.00735935
Al       1.57973357       0.67504523       2.02932654      -0.00292912      -0.00137896      -0.01741513
La      -1.35714549       2.37982873       2.75884247      -0.04341895       0.02472614       0.00259997
Cu       1.54191017       2.34137082       3.98370671      -0.00188591       0.01385995       0.01109129
Cu       3.04016469       1.51089484       0.06797806      -0.00378425      -0.01269068       0.01546957
Al       2.97368061       3.17088249       5.97350687      -0.00060201      -0.00830011      -0.01260294
La       0.06346633       4.87083096       5.17264144      -0.03725661       0.02134752       0.00345339
Cu      -2.75235960       4.84715594       3.95676429      -0.00609690       0.00310386      -0.00166182
Cu      -1.25502503       4.02170790       0.04842241       0.01025673       0.00260802       0.00398781
