8
Lattice="3.4465522853083357 0.00024143535649170277 9.85935301961811e-05 -1.7231375479808222 2.9846805048349627 0.004231422306954668 -0.0012834109911020449 0.0051102612801557906 12.043963742433315" Properties=species:S:1:pos:R:3:forces:R:3 structure_index=0 total_energy=-88.19707489013672 stress="0.02965051494538784 4.134712798986584e-05 -4.044701199745759e-06 4.137614814681001e-05 0.0298088937997818 -0.0014611025108024478 -3.184216438967269e-06 -0.0014595609391108155 0.06355314701795578" pbc="T T T"
C        0.43857204       0.25062005       4.69457502       0.00017113       0.00287624      -0.03522852
Gd       0.43869303       2.24016511       6.47731673       0.00044250       0.00326054       0.00042246
Gd       0.43889146       2.24337286       3.34543851      -0.00035826       0.00738323      -0.00929293
Gd       0.43871438       0.24817334       9.36378181      -0.00067392      -0.00042366       0.01993661
C        0.43877148       2.23684082      10.76991653       0.00002621      -0.00309230       0.01594820
N        2.16133456       1.24038158       1.09156787       0.00109722      -0.00456016      -0.03422964
Mn       0.43964112       2.23030146       0.42447436      -0.00029081      -0.00575859       0.01656850
N        2.16209440       1.24399250       7.88675595      -0.00041415       0.00031480       0.02587484
