18
Lattice="7.309126664479271 -0.2696167892893531 -0.009657487431379123 -0.4283750832029228 7.30105166313634 -0.07170744621518137 0.015531345419588425 0.10648874344382354 10.726035638618038" Properties=species:S:1:pos:R:3:forces:R:3 structure_index=0 total_energy=-64.40098571777344 stress="0.00801487360149622 0.005523777566850185 -6.481765012722462e-05 0.00552330119535327 0.008315011858940125 -5.309797415975481e-05 -6.474555266322568e-05 -5.2761653932975605e-05 0.005477078724652529" pbc="T T T"
Se       3.71524673       6.85311804      10.05430706       0.02428970       0.02476925      -0.00102969
K        1.94936149       1.49049206       2.06701375      -0.02740613       0.02741244      -0.00038589
Se       3.59409990       6.68029938       4.69215307      -0.02521568      -0.02564434       0.00120504
Br       1.99841234       5.03101075       1.89571509       0.01978998       0.02034985       0.00077219
Br       5.73040107       1.14746493       7.28990294      -0.02058635      -0.02055557       0.00198849
Br       3.76502240       3.27096472      10.09101230       0.00728512       0.03538780      -0.00091114
K        5.76107828       4.64178656       2.01814697       0.03031338      -0.02813779       0.00446177
Br       2.00308740       5.08324842       7.53019830       0.02100911       0.02122916      -0.00279125
Os       2.12865584       5.23312978      10.07436355       0.02642196       0.02676952      -0.00095454
Br      -0.13271693       6.98038983       4.69432645      -0.03611501      -0.00896600       0.00029672
K        1.96111141       1.53292129       7.43215488      -0.02932078       0.03163202      -0.00179132
Br       5.72144309       1.10024839       2.19772833      -0.02131227      -0.02180129      -0.00086836
Os       5.60656308       1.00152863       4.74483547      -0.02720115      -0.02769965       0.00063641
Br       3.96678884       2.96072907       4.72902989      -0.00780336      -0.03585038       0.00091949
Br       0.13274940       6.82800775      10.06186062       0.03540867       0.00793145      -0.00080674
Br       0.12299776       3.14162838       4.73423064      -0.01146452      -0.01189169      -0.00040472
Br       0.29960527       3.36549690      10.09792296       0.01101017       0.01116991      -0.00139132
K        5.76982744       4.68712078       7.38823534       0.03089708      -0.02610456       0.00105482
