19
Lattice="6.301930904388428 0.0 1.1411280632019043 0.31719477928993006 5.5249908808126404 2.9510910511016846 0.0 0.0 6.221107006072998" Properties=species:S:1:pos:R:3 pbc="T T T"
Fe       0.87183507       4.45634224       4.97089234
Co       5.97320203       0.14849880       5.22156341
Fe       0.27691125       1.44692748       1.91534895
Co       5.56062253       2.51811184       5.42865781
Fe       3.51601470       1.28954408       5.25864933
Fe       3.57301499       2.94544547       6.98155120
Co       3.86403955       4.56113789       8.74239979
Co       1.54430270       3.63533924       7.38000304
Co       4.81156651       5.13230993       6.20850909
Fe       3.26270724       3.89086142       4.80053016
Co       1.84151931       2.68011134       3.31985309
Fe       2.66435675       0.87229145       1.48137698
Co       1.58244108       5.27793703       9.10528280
Co       1.26389814       2.00407449       5.61956575
Co       5.83852801       4.02859681       3.82661159
Fe       2.11022335       0.16485261       3.69227916
Co       4.22981681       2.11589393       3.14005506
Ni       5.70791685       3.28217874       7.73903445
Co       5.13565937       0.87066801       7.33949757
