11
Lattice="3.1470950529853714 0.001857607227664144 -0.6596485484500585 -0.2449191827528639 5.0362566581683055 -1.1820736561647933 0.03705897278919397 0.07176337745367363 7.8828090598350435" Properties=species:S:1:pos:R:3:forces:R:3 structure_index=0 total_energy=-67.23734283447266 stress="-0.02660679630935192 -0.0005965602467767894 -0.007121896371245384 -0.0005971412174403667 -0.030602307990193367 -0.0037909734528511763 -0.007122724317014217 -0.0037897543516010046 -0.05676393210887909" pbc="T T T"
Fe       2.80724487       1.93886731       1.88294080      -0.00120365      -0.00766082       0.01303685
Fe       0.61515914       1.17174816       7.08095640      -0.00103042       0.02169336       0.00463271
Fe       0.83834485       4.06050338       0.33791791      -0.00270079      -0.00999038      -0.01368411
H        1.75965602       0.84626071       4.68810660       0.00414616      -0.04090562       0.01131850
H        2.81803425       4.44863832       1.93755194      -0.00035362      -0.00112349      -0.00562859
O       -0.07993103       3.46272731       3.73380951       0.00102322       0.04318279      -0.01507974
O        1.91653878       1.44411054       5.44387884       0.00138556      -0.00128859       0.01017977
Fe       1.76323212       3.60919582       4.70905934      -0.00139432      -0.01435184      -0.00234386
O        0.45135420       4.17975577       6.31616684      -0.01104889       0.01471789      -0.00510985
O        0.95756070       2.03556279       0.89495034       0.00854664       0.00531103       0.01919296
O        2.62166599       4.93839945       1.03480550       0.00263020      -0.00958427      -0.01651454
