6
Lattice="4.16959810256958 0.0 0.027120009064674377 2.677997913052735 3.8392313700502134 0.8578932285308838 0.0 0.0 13.126429557800293" Properties=species:S:1:pos:R:3 pbc="T T T"
Cl       2.60630998       3.15302766      13.28199592
Hg       2.04072726       2.51771204       5.01654754
Hg       2.72086582       0.59847874      11.00917149
Br       2.06603943       0.09349646       2.85767960
S        1.35943192       1.85944669       9.64194502
Cl       3.46173366       1.20388034       6.27591150
