6
Lattice="4.0101884563166825 -0.12388751698477148 0.1660090592889626 2.4904381394064288 3.544852336640551 0.808826521748105 0.43348582048021467 -0.5991262665755607 13.70370368468055" Properties=species:S:1:pos:R:3:forces:R:3 structure_index=0 total_energy=-11.588424682617188 stress="0.007500991690903902 -0.018345367163419724 0.014068901538848877 -0.018345551565289497 0.003843054873868823 -0.002242930931970477 0.014068878255784512 -0.0022431467659771442 -0.009437058120965958" pbc="T T T"
Cl       2.89528583       2.31131665      13.64642401       0.03176113      -0.02330345      -0.00528312
Hg       2.03508628       2.13932755       5.18244638      -0.00312802       0.00399497      -0.00606513
Hg       3.06416397      -0.05077654      11.46329482      -0.00357893      -0.00340804       0.00864530
Br       2.10329722      -0.15081736       3.00894527       0.01791885      -0.01234347      -0.01946797
S        1.43558337       1.32788166      10.38242116      -0.02743584       0.02245536       0.02263057
Cl       3.48426348       0.80192659       6.55485340      -0.01553723       0.01260459      -0.00045975
