12
Lattice="4.742800235748291 0.0 0.001461880630813539 0.0010055780194944681 7.342253616136743 0.002127448096871376 0.0 0.0 8.292898178100586" Properties=species:S:1:pos:R:3 pbc="T T T"
Eu       1.35554239       0.06916135       5.38089059
Au       3.72824807       1.64469965       7.00593665
Eu       3.73117713       0.07242703       1.75633897
Eu       3.72682104       3.74177994       1.23787055
Au       3.72885036       5.31370394       4.27811187
Au       1.35640755       1.64284201       0.13147425
Au       1.35731661       2.17377865       2.86060572
Au       3.72877065       5.84420284       7.01008907
Au       1.35763788       5.31108996       2.86128019
Au       3.72858115       2.17767445       4.27589534
Au       1.35736284       5.84170527       0.13297713
Eu       1.35639526       3.74623066       5.90124049
