11
Lattice="4.463056564331055 0.0 -1.54267418384552 -1.621201802855055 4.149051618024886 -1.4318476915359497 0.0 0.0 5.899174213409424" Properties=species:S:1:pos:R:3 pbc="T T T"
Mn       2.48892265       2.35111093       2.88140229
Mn       1.06679908       0.27517185       4.37197928
Mn       3.78442415       0.73707706      -1.15731063
Mn       0.00270774       1.74176636       2.50382299
Mn       1.92394651       1.55210419       0.51375556
Mn       0.50379397       2.97620004      -1.09847760
Mn       1.19561679       3.96425316       1.02423785
C        0.95703901       3.39322270       2.91386210
C       -0.44486277       1.30679013       4.38684549
C        1.08279165       0.29838387       1.41584391
Mn       3.05352720       3.17674327      -0.66206672
