15
Lattice="4.831684021933392 0.1065435627562889 1.3162269323747302 1.0866357944479756 5.561817898699861 3.30293822340305 0.017595046887539413 0.047970449325713205 6.178633891063122" Properties=species:S:1:pos:R:3:forces:R:3 structure_index=0 total_energy=-118.30171203613281 stress="0.0101478798314929 -0.0029779148753732443 -0.00016704419977031648 -0.002978350268676877 0.018457559868693352 -0.0030505957547575235 -0.00016652900376357138 -0.0030491678044199944 0.015850482508540154" pbc="T T T"
Fe       1.30692144       2.37927386       2.16521085       0.03439514       0.03197079       0.01304619
Fe       3.43588655       0.27046808       2.72856990      -0.03464862      -0.01644236      -0.00786769
Fe       2.58047964       0.73779434       6.67408531      -0.00386101       0.00456855      -0.01288392
Fe       2.75169253       5.11737928       8.03946458      -0.01366705      -0.02555155       0.00976836
Fe       0.30664815       1.44524869       6.07408585      -0.01094470      -0.02076223       0.01298800
Fe       1.71016619       4.35657287       3.97777105       0.00276303      -0.00479994       0.00304699
Fe       4.50261782       1.25385529       4.99212176       0.01063486       0.01553514      -0.00873412
B        5.53589028       5.32167681       9.85773439      -0.00575993      -0.00408629      -0.00729846
Fe       2.18939602       1.92926423       4.38022609       0.00068333      -0.00940770       0.01273274
Fe       4.16884567       3.86638220       4.17080543      -0.00239272       0.00478563      -0.00509205
P        1.19776156       0.02172669       2.39667464      -0.01632979       0.00571303      -0.00731797
Rh       5.34227767       4.21806647       7.86727983       0.00172537      -0.00242668      -0.00478703
Rh       3.14652555       3.23113501       6.40013161       0.01237720       0.02316150      -0.01073366
P        3.57106137       2.60083331       2.51474100       0.01816570      -0.00270347       0.00476338
B        5.18877860       3.06631010       5.82437985       0.00685926       0.00044586       0.00836916
