11
Lattice="4.530299227489866 0.0035935168313996333 -0.008355248377488468 -0.0036206953238153844 4.609308915383255 -0.0045498467701234405 0.027308846125007533 0.0206998832220542 17.278407956961743" Properties=species:S:1:pos:R:3:forces:R:3 structure_index=0 total_energy=-56.46729278564453 stress="0.004929540678858757 0.00014902632392477244 0.0002566735493019223 0.00014905480202287436 0.005472389981150627 0.0001850299013312906 0.0002569783537182957 0.00018523666949477047 0.0076100192964077" pbc="T T T"
Te       4.19067194       1.31557094       3.06678601      -0.00242796       0.00059178       0.00498367
Pr       4.18465012       3.62588336       5.43180791       0.00117580      -0.00071971       0.02983862
Te       4.18376672       3.61391317       0.05605888       0.00030695       0.00224358      -0.01613839
Te       4.19759212       1.33153447      11.78456329       0.00077637      -0.00119939      -0.02362227
Ce       1.92195959       1.30717423       0.80384068      -0.00076529       0.00193577      -0.01950288
Te       1.94361033       1.33123718      14.94671617      -0.00157530      -0.00022839      -0.03690816
Pr       1.92804748       1.32579019       9.60806434       0.00101858       0.00019450      -0.01644401
Te       4.18942273       3.63116515       8.62916420       0.00122561       0.00022918       0.04440762
Te       1.92265983       1.32177099       6.21711726       0.00121152      -0.00148056       0.00840261
Pr       4.20442860       3.63787653      13.89461280      -0.00137887      -0.00068416      -0.00684436
Cl       1.93147730       3.63437179      11.81360634       0.00043260      -0.00088256       0.03182752
