6
Lattice="2.862966299057007 0.0 -0.0007994315237738192 -0.0019114073878379661 4.252656030255854 -0.0018029222264885902 0.0 0.0 7.56063985824585" Properties=species:S:1:pos:R:3 pbc="T T T"
Mn       2.79813577       0.49389396       3.41956923
Fe       2.79474794       2.61951328       6.60274282
Fe       1.36416490       0.49320315       5.94978866
Au       1.36488174       2.62214111       4.29742845
Au       2.79662295       0.49352519       0.69223524
Mn       1.36631374       2.62207523       1.56608990
