9
Lattice="4.127202987670898 0.0 -0.0007598298834636807 2.05800374670457 4.190884228232044 1.0153495073318481 0.0 0.0 6.286901473999023" Properties=species:S:1:pos:R:3 pbc="T T T"
Si       2.91889011       2.96581876       5.58377416
Fe       0.85771923       1.54502288       5.16730230
Fe       2.92055128       3.79561200       1.53690751
Fe       2.92179583       2.05707373       3.32566259
Fe       4.98281870       2.51960246       1.25020177
Si       4.98306660       3.35436504       3.49305306
Fe       2.92268649       0.06825961       4.73792385
Fe       0.85935893       0.58056916       2.89760298
Pt       2.92285611       1.06237669       0.88797374
