10
Lattice="5.235991477966309 0.0 0.015637369826436043 -2.50933373132753 3.92206330703427 -2.506190061569214 0.0 0.0 5.58335018157959" Properties=species:S:1:pos:R:3 pbc="T T T"
Mn       1.11216210       3.32011651      -1.95890328
Ga      -1.50458322       3.32662032       0.91974655
O        0.25176139       3.74042130       1.78631285
Mn       1.08353230       1.61187994       1.13573876
Sn       3.68944028       1.69221680       4.06014671
O        2.11389073       2.63982835      -0.43890881
O       -0.60327919       3.60517790      -1.07646784
O       -0.92189509       1.44498189       0.46317295
O        2.67255534       2.60949511       2.47950441
O        0.27923426       1.17234602       3.24540403
