15
Lattice="2.987163157522428 -0.0017540657581954825 -0.387358136332738 -0.11965445818629285 5.9413561149588645 -0.3243791281448726 0.0097366254188442 0.3636915548180927 10.139693507199304" Properties=species:S:1:pos:R:3:forces:R:3 structure_index=0 total_energy=-97.25923156738281 stress="0.003934264648705721 -0.0008357937331311405 4.1223105654353276e-05 -0.0008346842951141298 0.005554731469601393 -0.002016284968703985 4.072667798027396e-05 -0.002014408353716135 0.004736976698040962" pbc="T T T"
O        1.41619905       0.54745350       7.90218760      -0.01339750      -0.00077039       0.00802543
Cr       0.28515286       4.94173757       1.52083841      -0.01957448       0.01018727       0.00460058
Li       0.84939982       0.58622876       4.19931366       0.01908130      -0.01581259      -0.00308654
Cr       0.09452792       0.56117158       9.46062479      -0.01428165       0.01016554       0.00322281
Fe      -0.04123503       3.53777791       8.84482031      -0.00382940       0.01268375      -0.00601506
Fe       1.15564575       4.77028184       6.65856843      -0.00220922       0.00280601       0.00198841
O        1.86664585       3.80302742       2.01132422      -0.01778586       0.00930750       0.00869825
O        1.64514905       6.06210566       0.31547234      -0.01782553       0.00842522      -0.00037618
O        0.23347763       2.28096848       0.50114446      -0.01090982       0.01520845       0.00312442
Li       2.95703364       1.42101753       6.41732657       0.03546454       0.00884339      -0.00672852
Al       1.87086061       1.99335624       1.33579540      -0.00920609       0.01057988       0.00081655
Cr       1.83511428       3.23675020       3.96769062       0.00569728      -0.01144952       0.00083390
O        2.22559595       1.41773844       3.00084650       0.02178116      -0.00262939      -0.01142102
O        0.71415753       4.74055834       4.83420628      -0.00586170      -0.02584982       0.01134801
F        1.35071373       1.96924815       5.57333604       0.03285709      -0.03169510      -0.01503150
