13
Lattice="4.534628868103027 0.0 1.8260383605957031 2.2636273263460254 6.107755454533109 0.9136373996734619 0.0 0.0 6.565486907958984" Properties=species:S:1:pos:R:3 pbc="T T T"
Tb       1.42568664       0.81940421       1.38815289
Dy       2.82883625       4.60572843       4.45157612
Fe       2.16599180       2.81460620       6.10618573
Fe       5.14568344       2.91695078       5.23495603
Fe       6.39234658       5.66767301       8.69084296
Fe       5.44633279       5.55184495       4.48904686
Fe       4.21224761       2.22207645       7.56816380
Fe       3.22432204       1.99921459       3.46796958
Fe       4.46934358       4.74251769       6.92721061
Fe       2.54555242       3.81085273       1.77680922
Fe       3.63957267       0.87922972       5.62667348
Fe       4.87783816       3.81223695       2.71637396
Fe       1.43652865       0.87594265       4.74225217
