10
Lattice="5.760915756225586 0.0 0.09915769845247269 -2.8413509714731195 5.019219825207127 0.0026090305764228106 0.0 0.0 7.617208003997803" Properties=species:S:1:pos:R:3 pbc="T T T"
La       1.67555219       4.00504053       1.29089039
La       0.19391730       1.50503155       6.51798822
Al       1.59939086       0.69142692       1.99141949
La      -1.33499058       2.40158828       2.68787987
Cu       1.57765021       2.37408375       3.89843499
Cu       3.05213305       1.52441903       0.09335781
Al       3.02850138       3.22241192       5.85190090
La       0.10941728       4.91993886       5.05969474
Cu      -2.72529728       4.88711765       3.85698760
Cu      -1.25360558       4.03977254       0.05901880
