4
Lattice="3.061991188232215 -4.1378993174674205e-05 -0.0006842560369083021 3.411401368209861e-05 3.061992007565931 0.0014238267538432446 0.0011741709236051275 -0.0027633502555737587 5.988779108438696" Properties=species:S:1:pos:R:3:forces:R:3 structure_index=0 total_energy=-32.611202239990234 stress="0.01207709964364767 -0.00020983834110666066 0.0015285126864910126 -0.0002100737765431404 0.01210863795131445 -0.004278912208974361 0.0015273819444701076 -0.004279298707842827 -0.0052339741960167885" pbc="T T T"
Mn       0.57088247       1.53943990       4.43802516      -0.00033165       0.00041456      -0.00067974
Ru       2.10133796       0.00938786       2.91834092       0.00077246      -0.00089985      -0.04490580
As       0.57018837       1.54099615       1.44345527       0.00036479      -0.00069287       0.00165602
Ru       2.10229682       0.00755391       5.95562549      -0.00080573       0.00117813       0.04392955
