12
Lattice="4.789642577139729 0.012061438941921679 0.5526831314866132 2.288765764410035 4.0960800148712915 1.113837421002167 0.04669715007385433 0.06487235887644727 6.613411104824344" Properties=species:S:1:pos:R:3:forces:R:3 structure_index=0 total_energy=-81.93732452392578 stress="0.031123844906687737 -0.002175950678065419 -0.0024146512150764465 -0.002176424255594611 0.03216274827718735 -0.00692299660295248 -0.0024145557545125484 -0.0069231740199029446 0.06091555953025818" pbc="T T T"
Zn       5.48430328       1.48646816       3.01143739       0.00112524       0.00012959       0.00063221
Zn       3.12649124       0.11729956       2.45662109      -0.00229168      -0.00118235      -0.00106283
Fe       3.65138336       1.08239801       4.82319468      -0.00624605       0.01331032      -0.02235075
Fe       6.03824073       2.43532651       5.37847094       0.00453374       0.00656531      -0.02403548
Fe       5.00656471       0.58581876       7.25748814       0.00447056      -0.01244999       0.02483478
B        6.64247577       3.57166021       6.87490822      -0.01341395       0.01065036       0.00468562
Fe       3.05435420       2.84405996       3.01503837       0.00106465      -0.00049702      -0.00166875
Fe       2.57552485       1.97567567       7.26704260       0.00444349      -0.00151380       0.01591323
Fe       3.57993620       3.77703159       5.37564419      -0.00218235      -0.00307448      -0.01681674
B        1.93448250       0.82775060       5.76410530      -0.00303334       0.00210959       0.00285273
B        4.30245954       2.19256167       6.32040751       0.01610176      -0.00942071      -0.00486816
Fe       4.90714192       3.32819299       7.81737234      -0.00457200      -0.00462685       0.02188411
