9
Lattice="3.9669525623321533 0.0 1.3482083082199097 1.292491313754908 5.787291345602354 2.6722617149353027 0.0 0.0 6.489254474639893" Properties=species:S:1:pos:R:3 pbc="T T T"
O        2.93482998       1.76139931       5.22864711
Gd       4.76702720       5.76253087       6.32502131
Sr       0.64768254       0.45685368       5.45528117
Gd       3.40319625       3.51767509       3.83978005
Eu       2.26130172       3.09399369       7.18199333
O        4.08794879       4.63459034       8.32202892
O        2.77513352       4.98151945       5.67634303
O        3.93506891       1.78744610       2.29410921
O        1.42647919       4.29817943       3.14374347
