10
Lattice="5.675207639737139 1.179657032201083 -1.4495450055319852 0.671049318382 5.33213297521038 -1.5856959747101809 -0.8593677701498691 -0.5548591237808443 5.680617784790824" Properties=species:S:1:pos:R:3:forces:R:3 structure_index=0 total_energy=-44.10127639770508 stress="0.0017350999405607581 -0.016487203538417816 0.012134606018662453 -0.016486726701259613 -0.003334882901981473 0.010225264355540276 0.01213643979281187 0.010225316509604454 0.003656435292214155" pbc="T T T"
Sb       0.99386419       1.49461688       0.60940402      -0.00422202       0.00530389      -0.00154943
O        3.54800757       4.59395528       1.79059573       0.02042258      -0.02476063       0.01378664
H        3.13668812       3.89761893       1.18382882       0.01002142      -0.01332822       0.01628610
F        5.33539240       1.39482222      -0.40178252       0.00484562       0.00700420      -0.03372478
F        4.92577738       2.66812509       3.25155932      -0.03427926       0.01673535      -0.01326489
F        1.99923779       0.92814722       2.19651924       0.02066988      -0.00857785       0.00379002
F        2.46884808       2.72042897       0.25509799      -0.01730257       0.00292906       0.02074325
F        2.64438072       5.48267577      -1.98712760       0.00989357       0.00900722      -0.00103524
F        0.17945119       2.85256758       1.66017362      -0.03173062       0.00708097      -0.01566100
H        2.86153866       4.77144446       2.51400177       0.02168173      -0.00139378       0.01062921
