8
Lattice="4.653505325317383 0.0 -0.8072497844696045 -2.4657935604227528 3.8920776913292623 -0.8229796886444092 0.0 0.0 4.701952934265137" Properties=species:S:1:pos:R:3 pbc="T T T"
Rh       2.93637426       0.07367239       1.39976919
Fe       0.54691819       1.27361157       1.40983947
H        1.43062355       2.74439631       1.37599987
Fe       2.97280043       2.61309762       0.59649643
Fe       1.56970087       3.39762571       2.97619249
Rh       1.63411291       0.64958032       3.76621448
Fe      -0.57521421       2.01691054       3.72247302
H        2.54016481       2.14559289      -1.01674677
