20
Lattice="4.638096151808678 0.013050110493498702 1.6250344869212778 2.5448657247969604 6.268982850129204 0.9431337572320007 -0.061812527300434246 -0.05504242170857841 6.582539702745185" Properties=species:S:1:pos:R:3:forces:R:3 structure_index=0 total_energy=-131.9298858642578 stress="-0.0031620541121810675 0.004492309410125017 -0.016223154962062836 0.004492729902267456 0.029746783897280693 0.018142398446798325 -0.016222886741161346 0.018142646178603172 0.008528001606464386" pbc="T T T"
Fe       2.12069081       0.79517384       5.17147516      -0.00455968       0.02732718       0.02682584
Fe       5.01517643       6.01424833       8.37572008      -0.00229374       0.00736731      -0.00764536
Fe       3.19575031       4.46869716       2.78749918       0.00711588       0.00008580      -0.00659471
Fe       4.57784082       3.74355415       7.44513905       0.00095654      -0.01296441      -0.00606876
Fe       5.74340903       3.96342762       3.16497811      -0.00552692       0.02905052       0.02487450
H        1.04577691       2.20302173       5.52359953      -0.01308269      -0.01448747       0.01240368
Ni       0.69560211       1.71169835       0.60386095       0.00353897      -0.01134387      -0.01413424
Fe       3.52542140       0.13748831       3.23397371       0.00371793       0.00610396       0.01222285
Fe       1.45402843       2.90076868       3.80066300      -0.00117352       0.00809695      -0.00759279
Ni       2.86131760       2.17661323       1.86341467       0.00372819      -0.02136293      -0.01763182
Fe       4.21168332       1.31303374       6.41875627       0.00526207      -0.00064960      -0.00500746
Ni       6.42273181       5.29025593       6.43978412       0.00311231      -0.02129941      -0.01918296
Fe       2.44677767       3.23765265       6.18382648       0.00630212       0.00842378       0.01296056
Fe       1.01765050       0.63080250       2.86981629       0.00216093      -0.01577337      -0.00852306
Ni       4.25730395       4.82501425       5.17982339       0.00266141      -0.01095384      -0.01581275
Ni       2.80862117       5.54547224       7.05080442       0.00132142       0.01133142       0.02569917
H        4.66853715       5.37210077       3.51512314      -0.01315357      -0.01438625       0.01370592
H        3.21297385       6.22794506       2.04309997      -0.00104270       0.00558667      -0.02144272
Ni       3.88575119       2.44477205       4.10066194       0.00182059       0.01312715       0.02583960
H        4.22805044       3.07034899       5.67846449      -0.00086547       0.00672044      -0.02489548
