14
Lattice="6.979166030883789 0.0 -3.1693003177642822 -2.721986923170491 7.331785463275704 -0.04737424850463867 0.0 0.0 8.4967622756958" Properties=species:S:1:pos:R:3 pbc="T T T"
Eu       2.20746100       3.01170001       4.19951670
Eu       1.90538202       5.66396275       0.45633235
Eu       2.18920186       0.20969888       6.87171812
Eu       4.78863484       0.07951832       3.87933310
Eu       0.00307445       1.53399292       1.74117511
Eu      -0.54302192       3.26636255       6.81180238
Eu       4.42304375       5.23364750      -2.55200825
Eu       4.03079859       2.40537698       0.65543211
Au      -0.17820727       0.79810157       4.74648092
Pt       1.32966483       5.37022051       5.89572233
Au       4.03719009       5.09305707       2.73373746
Eu      -0.87254147       5.58999994       3.74067587
Pt       2.45938929       0.02455496       1.50882273
Pt       4.43680400       2.25154476       5.97628083
