11
Lattice="4.008657932281494 0.0 0.0011658258736133575 0.0043427846927449314 6.998313986868589 -1.164166808128357 0.0 0.0 7.442932605743408" Properties=species:S:1:pos:R:3 pbc="T T T"
Eu       1.27160558       1.81104578       6.51116673
Eu       1.27542336       6.83559399       1.64606234
Mn       3.27897983       6.45491817      -0.88442843
Mn       3.27783616       4.16667937       5.30038239
Mn       1.27633365       5.78282002       4.98824045
Ge       3.27495623       1.80055661       1.42344748
Eu       1.26824375       3.78329840       2.77045867
Ge       3.27479221       1.81655009       4.15870951
Mn       3.27122918       4.19057242       0.30440421
Mn       1.27103444       4.83516128      -0.57030624
Mn       3.27862889       6.42921745       4.11004809
