8
Lattice="3.463754892349243 0.0 0.00046685177949257195 -1.731947777314374 2.9994091421949305 0.0027381088584661484 0.0 0.0 11.941197395324707" Properties=species:S:1:pos:R:3 pbc="T T T"
C        0.44211468       0.24869535       4.64698736
Gd       0.44232090       2.24624201       6.32780172
Gd       0.44255306       2.24856025       3.16962779
Gd       0.44130295       0.24489165       9.21703662
C        0.44071579       2.24509105      10.70164338
N        2.17003846       1.24644894       1.40876146
Mn       0.44204807       2.24613333       0.46164295
N        2.17422049       1.24692441       7.74009691
