11
Lattice="4.444487571716309 0.0 0.8056395649909973 -0.8336515745504379 4.357169536080166 0.705417811870575 0.0 0.0 4.463974952697754" Properties=species:S:1:pos:R:3 pbc="T T T"
Fe       2.73427494       2.66898974       3.15298205
Fe       0.75334865       3.34382629       1.50395082
Ni       1.96874924       0.21341068       3.13165377
Fe      -0.06104669       0.82895388       1.57213930
Ni       2.35525068       1.44378240       0.82077772
Co       0.32604773       2.05267531       3.80258009
H        3.74831798       2.41208964       1.56275267
H       -0.25810147       3.59518475       3.09701268
H        2.15664835       4.24757399       2.31398644
Co       3.16121911       3.95944484       5.31766682
H        1.33336997       1.76059989       2.34627880
