10
Lattice="3.7645044326782227 0.0 -0.0008344166562892497 0.002251858063385477 3.766062778535455 0.00041017544572241604 0.0 0.0 19.364418029785156" Properties=species:S:1:pos:R:3 pbc="T T T"
Eu       3.16823494       3.16226610       6.45486488
Mg       1.28353663       1.27789337       4.19804172
Eu       3.16742863       3.16133206       1.94872077
Eu       3.16831316       3.16286837      13.90525106
Au       1.28410445       1.27961700      15.75225355
Au       1.28448675       1.27804275       0.21484117
Eu       3.16664940       3.16179089      17.63362422
Eu       3.16735728       3.16208540      10.14649140
Au       1.28511255       1.27973069       8.18690912
Au       1.28399495       1.27961756      12.03945095
