6
Lattice="4.0999345779418945 0.0 -0.517139732837677 -1.1176186095670033 4.037718328491567 0.493845671415329 0.0 0.0 12.189921379089355" Properties=species:S:1:pos:R:3 pbc="T T T"
Cl       0.50142704       3.37723053       7.54595450
Hg       0.79944312       0.02171825       2.46889372
Hg       2.27764744       2.01490188       8.70974133
Br       3.55127467       1.07072596       3.80029102
S       -0.08495811       0.69429011      10.22906679
Cl       0.95233414       3.06362079       1.21544040
