6
Lattice="3.9511661183138282 -0.2156857528638247 -0.48537959395551183 -1.289260832032446 3.749739121849584 0.4652372111556802 0.24704990540283142 -0.16597902196922945 13.399913212906153" Properties=species:S:1:pos:R:3:forces:R:3 structure_index=0 total_energy=-11.589478492736816 stress="-0.0058777425438165665 -0.011177754029631615 -0.00780965993180871 -0.011177931912243366 -0.0002892345655709505 0.004278020467609167 -0.007809742819517851 0.004277422092854977 -0.01353866420686245" pbc="T T T"
Cl       0.55993728       2.88822634       8.29785251       0.02929869      -0.02111887       0.00008574
Hg       0.79448198      -0.03932023       2.73021557       0.00222093      -0.00224584       0.01387287
Hg       2.19486855       1.65639113       9.67160567      -0.01150374       0.01660740      -0.00673492
Br       3.48426179       0.70953118       4.20294406       0.02137956      -0.01741116      -0.00798391
S        0.04324391       0.52929984      11.05328039      -0.02415012       0.01082009      -0.02452171
Cl       0.78266617       2.73391276       1.40796130      -0.01724532       0.01334828       0.02528184
