19
Lattice="6.352842807769775 0.0 0.8302028179168701 0.7332204705619028 6.310433823868235 0.8279350996017456 0.0 0.0 6.407582759857178" Properties=species:S:1:pos:R:3 pbc="T T T"
Fe       4.56417830       1.92809851       4.60195276
Fe       1.55832121       6.07170001       7.00567088
Fe       6.22519973       0.06627925       4.59867150
Fe       5.70394201       4.09331259       5.30718588
Fe       0.76973434       2.53442291       2.90012389
Fe       1.96533515       1.92813096       6.88673109
Fe       6.44160025       1.92750975       6.15894807
Fe       2.52052906       4.09286679       1.69593714
Dy       2.50381922       4.07819140       4.87366010
Fe       1.75089103       0.06176044       2.12388728
Fe       5.76052629       1.32239163       2.17811832
Fe       3.26644948       1.92705137       2.53908154
Fe       6.80856359       5.08338698       3.36658452
Fe       4.78005120       3.79307018       2.95381348
Fe       6.65836870       3.78952435       7.71645275
Dy       4.76071577       6.08625936       7.43975335
Fe       4.74531533       6.07412998       4.20962194
Fe       2.15426329       0.94544614       4.47882980
Fe       4.37556083       2.90964686       7.00776621
