4
Lattice="3.648718913231277 -0.0002891007271096388 -0.9956134209433171 -0.8321900111997287 5.806166729315822 -3.0479486220072336 0.029775425963591184 0.06816105765490289 7.292220296480037" Properties=species:S:1:pos:R:3:forces:R:3 structure_index=0 total_energy=-34.931941986083984 stress="0.035846464335918427 -0.0019318314734846354 -0.003055066568776965 -0.0019318123813718557 0.0338263101875782 -0.007000823505222797 -0.0030550684314221144 -0.007000913843512535 0.026863571256399155" pbc="T T T"
Eu      -0.41077564       5.24220122       0.12020196       0.00236960      -0.01490155       0.00908101
Eu       0.84519524       2.83949463       4.72751385      -0.00610406      -0.00529398      -0.02438206
Tm       1.82829017       2.36461076       1.13855815      -0.00276511       0.00483083      -0.00648259
Eu       2.28294537       5.80682529       2.81380365       0.00649956       0.01536468       0.02178364
