8
Lattice="2.8809194564819336 0.0 -0.4909689128398895 -0.16867609606921305 4.052476570107094 -1.0037875175476074 0.0 0.0 8.706466674804688" Properties=species:S:1:pos:R:3 pbc="T T T"
Fe       1.73413017       2.88219090       0.92925681
Fe       1.48249500       0.35583783       8.17690416
Fe       0.62382683       3.37789199       3.12597568
Fe       1.06253562       1.88266997       5.70728378
Fe       2.17388882       1.39063060       3.51921076
Fe      -0.04274484       2.38271661       7.91912729
Rh       2.41143783       3.90121440       4.91732314
Rh       0.38552195       0.86509841       1.72685418
