7
Lattice="4.599790096282959 0.0 -1.3274908065795898 -0.3957051975089776 4.582936965939269 -1.3299903869628906 0.0 0.0 8.689583778381348" Properties=species:S:1:pos:R:3 pbc="T T T"
O        2.67593859       2.32924563       4.76443303
Ge       1.12765324       0.64099621       8.03577695
Eu       1.93507260       1.52076795       2.17431893
Eu       2.86492383       0.02713945       5.39726558
Eu       0.36751835       2.31921221       5.39664801
Eu       3.39497798       3.11434963      -1.40699264
Ge       4.20467876       3.99377484       1.42996687
