16
Lattice="2.4701790809631348 0.0 0.26438769698143005 1.1778224125795018 6.332525064366245 0.8611185550689697 0.0 0.0 11.917484283447266" Properties=species:S:1:pos:R:3 pbc="T T T"
Fe       2.32990804       0.20002201       8.14962945
Fe       2.45338098       5.04965587       7.08515797
Fe       0.98840947       4.17052761       9.13655693
Fe       2.38014053       2.59787675       7.73769662
Ni       3.08151427       4.67567030       1.10687694
Fe       1.68691709       6.13682361       2.56158859
Fe       2.82482158       3.86682095       3.51846611
Ni       1.57164053       1.47702028       3.50748852
Fe       0.55498604       2.26970127       1.32890098
Ni       1.36567431       3.23113488       5.52009342
Ni       1.95398025       0.76957646      11.75376208
Fe       2.00803607       3.19915032      11.30905520
Fe       2.58129364       1.04521742       5.83045074
Ni       0.93100577       1.69586741       9.62002124
Ni       1.44503378       5.57918245       4.84061897
Ni       2.05960376       5.61228538      10.89352247
