4
Lattice="3.697403041961406 -0.0003187537151367855 -3.491046446784518e-05 0.0002639002652003365 3.6972158322089697 0.0002794557893569951 3.071317936389733e-05 -0.00024714288642813434 3.3659529405426443" Properties=species:S:1:pos:R:3:forces:R:3 structure_index=0 total_energy=-29.756855010986328 stress="-0.03325482830405235 -0.0009026231709867716 -1.947835880855564e-05 -0.0009031809167936444 -0.03712793439626694 0.0001660435664234683 -1.9778070054599084e-05 0.00016617246728856117 0.006532425992190838" pbc="T T T"
Fe       1.35840333       3.37544633       1.75895018       0.00026837       0.00102597      -0.00020467
Fe       3.20677500       1.52691159       1.75863240       0.00056269       0.00049582       0.00018199
Ni       3.20739290       3.37602803       0.07589474      -0.00144818      -0.00155655      -0.00010846
Co       1.35811539       1.52720984       0.07571683       0.00061708       0.00003477       0.00013113
