8
Lattice="4.765651702880859 0.0 -1.1332013607025146 -2.519300632209195 4.208873002851351 -0.007528895512223244 0.0 0.0 10.581729888916016" Properties=species:S:1:pos:R:3 pbc="T T T"
Eu       2.06156779       0.90939393       7.76225800
Eu      -2.09746277       4.13356909       0.84544788
Eu       3.36075942       1.69008736       2.61464679
Pt       1.26105610       0.43004413       4.38603331
Eu       1.44233563       3.39942159       5.15561390
Pt      -0.00612067       2.53024519       9.66270883
Pt      -0.65587614       2.13958517       6.91463952
Pt       2.69612430       1.29580731      -0.14683163
