12
Lattice="5.2797465324401855 0.0 -1.9043446779251099 -2.9038691225588313 4.566799092911268 -1.5353503227233887 0.0 0.0 5.64378547668457" Properties=species:S:1:pos:R:3 pbc="T T T"
O        0.35770049       1.51346764       0.70584645
Fe       1.37784384       1.81515192      -0.89136791
F        2.66667610       2.12044699       3.03967526
Cr      -0.54091920       2.81949218       1.87464108
O       -0.89173182       4.10536423       0.39615058
Cr      -2.46763920       4.16441343      -0.68800328
O       -0.11340017       1.78950361       3.53517673
Fe       3.49598975       0.78125456       1.68969680
O        3.06487661       1.81301571       0.11204682
F        1.56533665       3.86583031      -1.04114643
F       -1.41395989       4.28812428       3.21784619
F        1.14690282       4.07769603       1.86321723
