14
Lattice="6.957433223724365 0.0 -2.4574103355407715 -3.479625022360779 6.027960351102563 -2.458143949508667 0.0 0.0 7.375833988189697" Properties=species:S:1:pos:R:3 pbc="T T T"
Gd       2.33461738       5.06747039      -3.78883560
Gd      -1.58776198       5.82771191       3.58072767
Gd      -0.27023232       2.06415174       3.58155812
Gd       2.33263919       3.56974902      -0.10098045
Pt       0.15324898       4.33289472       1.68930915
Gd      -1.57887304       2.81910570      -0.10209058
Pt       0.16616101       4.32133083      -1.98979117
Pt       4.17520723       1.30604012      -0.30067802
Pt       4.24038894       3.27498782       2.17202282
Pt      -2.71694957       5.37089814       0.93245627
Pt       2.50714119       2.35160220       4.62912883
Gd       3.19951550       0.56144570       2.35360573
Pt       0.69530897       1.30484682       0.93592171
Pt       5.97582348       0.26944244       3.38870577
