7
Lattice="3.5599544048309326 0.0 -0.04531022161245346 -0.07300044240165336 6.280802414929313 0.060727719217538834 0.0 0.0 6.126095294952393" Properties=species:S:1:pos:R:3 pbc="T T T"
Se       0.25301643       0.83609845       0.63817500
V        2.00876334       1.89722846       5.19998296
Ti       0.19975230       5.04445453       5.24453304
Se       1.96634373       6.14352052       3.71661996
V        2.00999441       1.92056431       2.12409596
Se       0.22128635       2.95714823       3.67414530
Se       1.98250001       3.94277696       0.58614883
