4
Lattice="3.1177509595659636 0.06408752947144289 -0.01884496406815805 -0.06894775577335571 3.1178703030979773 -0.018174124403988683 0.03798715879885841 0.04088099399168323 7.65478918544872" Properties=species:S:1:pos:R:3:forces:R:3 structure_index=0 total_energy=-12.820243835449219 stress="-0.018376529216766357 -0.04091447964310646 -0.011734627187252045 -0.040914565324783325 -0.02029990404844284 -0.01207130216062069 -0.01173503790050745 -0.012071147561073303 -0.043477073311805725" pbc="T T T"
Ni       0.83674645       0.63112763       0.44090210      -0.00112563      -0.00126334       0.01022192
Ag       2.39019237       2.25416261       6.55381729       0.00038191      -0.00082120       0.00365593
Ag       2.36959231       2.23034631       1.95057806       0.00037960       0.00086490      -0.01854758
Tl       0.85497475       0.64940934       4.26871586       0.00036404       0.00121965       0.00466971
