18
Lattice="5.526010036468506 0.0 -0.9079232215881348 -1.9460040527475695 9.021554404531551 -0.17701053619384766 0.0 0.0 7.31850004196167" Properties=species:S:1:pos:R:3 pbc="T T T"
As       1.39822468       3.53231815       6.06100270
As       1.75211306       6.20190675       4.42077574
As       3.38266095       0.25832086       3.82722708
O        2.62180547       3.38014907       4.67195718
O        2.61016178       3.87019029       0.04830259
O        1.84623798       5.34614991       2.93135662
As       2.20466272       3.58257165       2.91648772
As       5.24849809       0.39797135       1.19103277
O        0.95778637       5.27852166       5.64910949
O        3.25423084       8.11913580      -0.24179070
O        0.80118608       7.58303426       4.16883881
As       4.28535176       3.49390243       0.49997564
O        1.86734754       8.82881977       1.96600663
O        3.38068345       6.63735287       4.86122961
As      -1.47358688       8.20196612       6.37651458
O        4.45343494       1.72964099       0.21412503
O        4.93331551       0.28947971       4.68213290
O        3.92380344       3.48620810       2.31036242
