9
Lattice="3.746812582015991 0.0 -0.8975709676742554 -1.6036361748486465 4.420059688919282 1.1452702283859253 0.0 0.0 7.789995193481445" Properties=species:S:1:pos:R:3 pbc="T T T"
Mn       0.13872653       4.08486319       1.62690856
Mn       2.60580606       0.75066280       3.78126566
Ir       2.03965642       2.17553844       1.45381736
Ge      -0.21087995       1.71323070       0.45921751
Ir      -0.70538173       3.23993423       6.17839565
Ir       0.66515255       2.60643035       3.82626316
Mn       1.22244341       1.32535194       6.10948052
Ge      -1.26369001       4.36527162       3.88946037
Ge       1.53892156       3.81870852       7.13772427
