9
Lattice="3.9610800500036887 -0.0432667362513283 -0.9814782180826968 -1.7822783374240867 4.315507937251353 1.1024952184686214 -0.16894858319536502 -0.14263553157282202 7.812966524877403" Properties=species:S:1:pos:R:3:forces:R:3 structure_index=0 total_energy=-68.68775177001953 stress="-0.017100440338253975 0.0017498604720458388 0.0018258972559124231 0.0017494441708549857 -0.02112664096057415 0.00608433224260807 0.0018248014384880662 0.006083886604756117 -0.00888608954846859" pbc="T T T"
Mn       0.08597528       4.12581543       1.71649623       0.00707632      -0.00593802       0.02914318
Mn       2.62407565       0.63992540       3.62544251       0.00302639       0.01499427       0.01776239
Ir       2.05356049       2.31856727       1.25311195      -0.00424339       0.03148578      -0.02674669
Ge      -0.24313419       1.66494970       0.49746703      -0.00047688      -0.02954982      -0.00737768
Ir      -0.92961007       2.90119444       6.15638608      -0.00101997      -0.00589328      -0.00411406
Ir       0.56754228       2.30247300       3.73818879      -0.00727736      -0.02582188      -0.01991077
Mn       1.11909987       1.10594300       6.01872845      -0.00293012       0.00811989      -0.01132573
Ge      -1.44567328       4.08353928       4.01931900       0.01132890       0.01173475       0.04515568
Ge       1.38135666       3.61592920       6.96731578      -0.00548397       0.00086826      -0.02258635
