6
Lattice="2.7574005126953125 0.0 0.808201014995575 1.3253002385459918 4.559338178907616 0.6240426898002625 0.0 0.0 5.068518161773682" Properties=species:S:1:pos:R:3 pbc="T T T"
Fe       2.68568385       0.87287096       1.66271363
Fe       1.06840647       2.65192555       2.06552402
W        1.88998362       1.74422442       4.34697239
Fe       2.16236234       4.36292365       3.45690284
H        0.37915657       0.28226328       4.38610658
Fe       2.96390604       3.58941228       5.80615816
