8
Lattice="4.017703533172607 0.0 -0.0020558189135044813 -0.0005654494054203565 3.9955684738592834 0.0002032092452282086 0.0 0.0 10.800253868103027" Properties=species:S:1:pos:R:3 pbc="T T T"
Eu       1.35371111       1.05670613       6.16916911
As       3.36360060       3.05369196       4.91595342
Mn       1.35481921       3.05303822       3.15455277
Eu       3.36520847       3.05170646       0.13732377
As       1.35556912       1.05381125       1.38870289
As       1.35567110       3.05249333       8.55388872
As       3.36494112       1.05561955       8.55406277
As       3.36451912       1.05260226       3.15588709
