9
Lattice="3.9219720363616943 0.0 0.010470310226082802 -0.026651748279406685 3.7096751808688437 0.9070426821708679 0.0 0.0 8.051763534545898" Properties=species:S:1:pos:R:3 pbc="T T T"
Cu       3.49526387       1.43184410       6.04329284
Cu       1.44576398       1.12948813       8.08601444
Tm       1.44847306       0.06534721       3.71767750
O        3.40434456       0.98236250       7.94166316
O        3.41067571       0.29694037       2.64223126
Tm       3.38148490       2.55584595       1.77190276
O        1.43113910       1.70131856       5.00906298
F        3.39668275       3.37907766       6.18255836
O        1.42766290       2.42618500       1.55708232
