11
Lattice="5.76456238174406 -0.0006719512600418642 -2.0017128707499654 -2.9637824673867263 4.973266699411826 -1.9378080279249064 0.02037985430100853 -0.00013100344646383916 6.113652767853423" Properties=species:S:1:pos:R:3:forces:R:3 structure_index=0 total_energy=-71.7357406616211 stress="0.03909192606806755 -0.000740932475309819 -0.0009927290957421064 -0.0007405413198284805 0.04031798616051674 0.0009709105943329632 -0.0009943891782313585 0.0009699990041553974 0.03928941860795021" pbc="T T T"
Mn      -0.28934279       1.80413178       1.96037002      -0.00937888      -0.01740997       0.01347005
F       -0.28359352       3.70008722       1.95210283       0.00131883      -0.04934043       0.00107752
F        1.61423735       1.94533769       3.14958785      -0.02121978      -0.00115089      -0.01690303
Eu       1.88537954       0.51995885       5.03431245      -0.00563977      -0.01402512       0.01413408
Mn       3.33367221       3.10384905       2.98674267       0.01474170       0.02765653      -0.02152731
F        0.80994376       1.86396359       0.41704682      -0.02589366      -0.00107764       0.04077137
F        2.84712152       4.17327640       1.37522936       0.00796139       0.03138565      -0.03062880
F        3.73060732       1.94516473      -1.45267571       0.02039883       0.00136296       0.01443493
F       -0.76107426       4.16171012      -1.19751376       0.02326828       0.03060254      -0.01936761
F        4.37776537       1.77158237       1.49815310       0.00755280      -0.02166694      -0.01215243
F        2.51781442       4.88575682      -1.99719625      -0.01310945       0.01366311       0.01669176
