9
Lattice="3.891112165589038 6.571056070215356e-05 0.00011315855968808292 -0.00040485661216878803 8.883750415557058 -5.134985521050229 -0.00043219377746979285 0.0030910888768615925 10.262556402562312" Properties=species:S:1:pos:R:3:forces:R:3 structure_index=0 total_energy=-75.08566284179688 stress="-0.007316540461033583 -1.5622081264154986e-05 2.923554893641267e-05 -1.5578134480165318e-05 0.002002925146371126 -2.4088640202535316e-05 2.9259268558234908e-05 -2.3954067728482187e-05 0.0029015913605690002" pbc="T T T"
Eu       1.90924785       0.52234348       6.44266748       0.00007690      -0.03685343       0.03026907
Mg       1.90807184       3.86562178       7.89508551       0.00049854      -0.00094793       0.00127966
Eu       3.85448044       1.27198748      -0.62702195       0.00021570       0.03406790      -0.01018903
Eu       1.90915192       0.90468396       2.76397309       0.00005707      -0.00209963       0.00108620
Eu       1.90894472       4.28008830       1.25681356       0.00030040       0.04217574       0.01556793
Eu       3.85449922       3.65541540       4.77844062      -0.00002609      -0.00860238       0.03746207
Eu       1.90922425       6.79227889       5.73050960      -0.00009265      -0.00449471      -0.04795289
Eu       3.85540971       6.66446155      -0.99062111      -0.00065870      -0.02452980      -0.02513804
Mg       3.85496203       6.82703145       2.76883517      -0.00037115       0.00128423      -0.00238496
