3
Lattice="4.088208053925436 0.00010884279368588532 0.0006358111430293352 -0.00019299500714135115 3.6448895427324124 -2.104473079839477 -0.00020995061895659524 0.0006850912867212374 4.209110951523366" Properties=species:S:1:pos:R:3:forces:R:3 structure_index=0 total_energy=-20.435504913330078 stress="0.032326437532901764 -0.0012250648578628898 0.002315807156264782 -0.0012252955930307508 -0.06847061216831207 -0.001141980872489512 0.0023163501173257828 -0.0011419701622799039 -0.07174168527126312" pbc="T T T"
Li       4.08431840       0.64898190       3.42555925       0.00432148       0.00163319      -0.00594176
P        4.08471592       1.86397136       1.31953481       0.00123419      -0.00031062       0.00461765
Eu       2.04246850       3.07908835      -0.78494252      -0.00555572      -0.00132256       0.00132412
