12
Lattice="4.085251865219651 -0.00021483584490034378 0.9343509109145351 1.7337985257053206 7.351838294424858 1.8185601234104323 -0.04436821913890723 0.07755914056062271 9.590137657679985" Properties=species:S:1:pos:R:3:forces:R:3 structure_index=0 total_energy=-102.2879409790039 stress="-0.0042030238546431065 -0.001116682426072657 -0.0028486354276537895 -0.0011162610026076436 0.014812086708843708 0.005116969347000122 -0.0028484787326306105 0.005115928594022989 0.007908380590379238" pbc="T T T"
Eu       2.73273477       5.85430583       5.03899460       0.00164097       0.00388509      -0.01678560
P        1.93935697       1.50936810       8.50219313      -0.00592907      -0.00469103       0.02352618
Eu       1.32710797       2.29861771       1.77757017      -0.00290591      -0.00878369       0.01954310
Eu       5.49766697       6.67840408      11.73215282       0.00850068       0.02886188      -0.02569056
Eu       3.89850372       3.79848347       9.33946878      -0.00320754      -0.02594796       0.00356220
Eu       0.42634380       0.98019005       5.71636550       0.00998630      -0.00001280      -0.03664099
P        3.10111149       0.54845256       3.42499367       0.00082052       0.00861655      -0.00911258
P        4.69333280       3.74634881       5.86107953      -0.00357846      -0.02156258       0.01252464
P        3.32429241       4.51754896       2.43978023      -0.00625605       0.01651020       0.03983356
P        2.05463425       5.50864010       8.00369714      -0.00426166      -0.00572632       0.01562099
Pt       2.90146428       2.80833001       4.29021375       0.00354319       0.01042795      -0.01063716
Pt       2.31563579       3.32216365       6.86336394       0.00164699      -0.00157742      -0.01574367
