5
Lattice="3.933032617633474 -0.004451672782315884 -0.006666913593015891 -1.9599403173035523 3.411457056745701 0.02365654527179009 0.006732486498653549 -0.03239878551955869 6.197438828503433" Properties=species:S:1:pos:R:3:forces:R:3 structure_index=0 total_energy=-41.873252868652344 stress="0.054917242377996445 0.0017101092962548137 -0.0011518978280946612 0.0017109765904024243 0.05795761197805405 0.0010734787210822105 -0.00115184485912323 0.0010742858285084367 0.0648224875330925" pbc="T T T"
La       1.12093685       1.88394848       2.72034236      -0.00283665       0.00337768       0.02206746
O       -0.84580201       3.02799096       2.06462687       0.00068450       0.00005681       0.02174633
La      -0.84333410       3.01074394       5.80715692       0.00291567      -0.00390018      -0.02415490
O        3.08533639       0.73891381       4.24813307      -0.00007073       0.00073521       0.00038833
O        1.11669055       1.89895832       0.26477835      -0.00069275      -0.00026950      -0.02004764
