7
Lattice="3.9576680660247803 0.0 0.0765281692147255 0.13978389230669747 6.543391777986752 -4.259912490844727 0.0 0.0 7.764716148376465" Properties=species:S:1:pos:R:3 pbc="T T T"
N        1.87097991       3.81197215       3.75165996
Sr       1.81506223       1.49944765       4.84703705
Cl       3.81038178       2.36157981      -0.91584639
Cl       3.88011158       5.79699801       0.41559311
Sr       3.87300715       4.88217716      -2.60481521
Cl       1.80173057       0.77397432       1.89714158
Sr       3.82895054       3.30496976       2.13159032
