10
Lattice="3.524615526199341 0.0 1.0433647632598877 1.4174774839259494 6.04443043307307 1.6793912649154663 0.0 0.0 6.6280317306518555" Properties=species:S:1:pos:R:3 pbc="T T T"
Fe       3.09089466       4.14306163       5.09065959
As       1.78873142       4.06795271       2.99157863
Fe       3.78064402       5.48805889       2.69190475
Zr       3.76686984       2.18906046       2.75916694
Fe       3.08658188       0.20387119       5.14776586
As       4.36303728       3.95162711       7.30225755
As       0.86828376       0.60183317       6.19805107
As       1.75463253       0.38028758       3.12653888
Fe       1.34970473       2.25372696       4.51358522
Fe       2.65147688       2.25137868       6.61758190
