10
Lattice="3.398578695014618 0.003079745688968537 0.9939851536801833 1.3327756360435925 6.2124524975532704 1.7326561472716617 -0.14573037907036446 0.042958077325086726 6.806640347821001" Properties=species:S:1:pos:R:3:forces:R:3 structure_index=0 total_energy=-71.93528747558594 stress="-0.00039007558370940387 0.0006232503801584244 0.00012146958761150017 0.0006237030029296875 0.002152609173208475 -0.0014536005910485983 0.0001208949979627505 -0.001454576151445508 -0.0014156694523990154" pbc="T T T"
Fe       2.87654857       4.24760973       5.21562507       0.00575230      -0.03144136      -0.01405003
As       1.67069453       4.16613180       3.03371565       0.00775931      -0.02400970      -0.03187820
Fe       3.59130343       5.60828288       2.76898252       0.00720867       0.03689757      -0.02248704
Zr       3.60077217       2.24402344       2.74788360      -0.00226101      -0.01890669       0.00404721
Fe       2.87199472       0.24479640       5.24496468      -0.00169342       0.01465263       0.00699832
As       4.07495092       4.13092235       7.42638091      -0.00667854       0.00227870       0.02543616
As       0.71411448       0.70512893       6.31396416       0.00231368       0.01186275      -0.00475958
As       1.63157200       0.37189977       3.17978534      -0.00363987      -0.01233125       0.00507638
Fe       1.22965090       2.34026848       4.54637798      -0.00549069       0.01040411       0.01919886
Fe       2.41636445       2.41507343       6.79562470      -0.00327042       0.01059307       0.01241806
