12
Lattice="4.492633583774189 -0.002367089111786823 1.3401173141714549 2.048068056858127 3.998231635934109 1.3414464527731547 -0.010845994492430502 -0.009137122758509225 8.236694385042375" Properties=species:S:1:pos:R:3:forces:R:3 structure_index=0 total_energy=-107.12113952636719 stress="0.00040991001878865063 -0.00010564482363406569 0.0003395583771634847 -0.000105551109299995 0.0004865070804953575 0.0002293327561346814 0.00033934073871932924 0.0002294798759976402 -0.0005809024441987276" pbc="T T T"
Fe       2.91200387       1.06225074       4.32952295      -0.01110736      -0.00836004       0.04787555
Fe       1.10585926       1.31749711       6.33284982      -0.01290883       0.00988451      -0.01350664
Fe       4.35838786       3.31250257       3.60890680      -0.01475399       0.01308706      -0.01450141
Fe       4.36387332       3.33566101       7.67277871       0.00382749      -0.01629968      -0.01199725
Fe       3.32953046       1.31620374       6.99688161       0.01683982       0.00965440      -0.00522637
Ta       1.70416491       3.06950859       8.38897247      -0.00323303      -0.00208055       0.00842881
Co       4.97035291       2.31856279       5.63582279      -0.00225104      -0.00093011       0.00931444
Co       1.69470662       0.31606452       8.41448652      -0.00226367      -0.00096231       0.00878270
Fe       2.10227116       3.31384080       2.93637467       0.01986800       0.01305994      -0.00510468
Fe       1.08303653       1.32329943       2.26815435       0.00348356      -0.01811769      -0.01457565
Mo       3.71396017       1.55226154       1.64870357      -0.00017244      -0.00038887      -0.00115279
Mo       2.54509736       3.58424934       5.56890550       0.00267153       0.00145316      -0.00833672
