6
Lattice="6.025794506072998 0.0 -0.023071004077792168 0.016775959067365603 5.748099642163404 -3.2980031967163086 0.0 0.0 6.623410224914551" Properties=species:S:1:pos:R:3 pbc="T T T"
Y        3.82445987       1.65021869      -0.93927919
Eu       3.82589118       5.40331780      -0.93201116
Y        0.80893086       3.48892925      -1.98339246
Eu       0.79872535       1.60355457       1.28069610
Eu       3.82588564       3.52284490       2.43325061
Eu       0.82546246       5.46421049       1.33483773
