20
Lattice="4.48930394818362 0.008118351695967205 -0.08391128411996782 0.1690934587416789 6.810939592495468 -1.6581760222111737 -0.05622268059130488 -0.09317031207261812 6.929765589672818" Properties=species:S:1:pos:R:3:forces:R:3 structure_index=0 total_energy=-151.29098510742188 stress="0.0005289114778861403 -9.773830242920667e-05 0.0003456760023254901 -9.677865455159917e-05 0.0010182110127061605 0.0016619538655504584 0.0003440280561335385 0.0016611003084108233 7.167804869823158e-05" pbc="T T T"
Co       3.08411759       5.81169953       1.09103677      -0.00128122      -0.00604384       0.00255001
Co       1.48310392       0.81715617       4.09436632      -0.00596461       0.01196662       0.00543180
Co       3.06097272       2.87825986       5.00008863       0.00229469       0.01995867      -0.00500496
Ti       3.56926308       0.08461756       5.03946229      -0.01244660       0.01914440       0.00113066
Co       3.11479701       4.41921419       3.14622725      -0.00048415       0.01196411      -0.00280242
Co       3.88553497       3.42675245       0.83482718      -0.00668623      -0.01012716      -0.00754383
Co       0.80653695       3.59029167       4.18228289       0.00481139       0.00697199      -0.01312103
Co       0.63293257       1.63026252       6.49005667      -0.01076028      -0.00951500       0.00533372
Co       3.05098515       0.73238413       0.71954178       0.00652707      -0.01079644       0.01330954
B        2.57795313       2.32096881      -0.21457866       0.00978878      -0.03957114      -0.02900761
Ti       1.59670175       5.87020293       4.77530640      -0.00812377       0.00469253       0.00520704
C        0.14001552       1.92662323       4.70546551      -0.00041611       0.01640689       0.00515880
Co       0.74351734      -0.01381248       1.75496584       0.00500531      -0.00673082       0.01629667
C        0.17555554       5.09099364       0.47437965       0.00077450      -0.01024598       0.00204572
Ti       1.60041520       2.71515487       1.95744215       0.00550796      -0.00253713      -0.01500604
Co       3.83675455       1.85283105       2.89070459       0.00402925       0.01245849      -0.00069550
C        2.36958439       0.72814004       2.44710113       0.00842182       0.00060135       0.01379281
Co       0.86829537       5.19770054       2.25455702      -0.00279920       0.00481495       0.00106192
Co       3.86300902       5.07990671       5.55148251       0.00337587       0.00474039       0.00366050
Co       1.64701653       4.17097432      -0.25880009      -0.00157438      -0.01815286      -0.00179720
