19
Lattice="6.352842807769775 0.0 0.8302028179168701 0.7332204705619028 6.310433823868235 0.8279350996017456 0.0 0.0 6.407582759857178" Properties=species:S:1:pos:R:3 pbc="T T T"
Fe       4.56416918       1.92785164       4.60169540
Fe       1.55869770       6.07119522       7.00588311
Fe       6.22487127       0.06651472       4.59813388
Fe       5.70317823       4.09354908       5.30697873
Fe       0.77062043       2.53529200       2.90117484
Fe       1.96533788       1.92876282       6.88738026
Fe       6.44155680       1.92748999       6.15913870
Fe       2.52066532       4.09291341       1.69526954
Dy       2.50507572       4.07898302       4.87485761
Fe       1.75080324       0.06177258       2.12376031
Fe       5.75941965       1.32172868       2.17698867
Fe       3.26670525       1.92695006       2.53897722
Fe       6.80853317       5.08347252       3.36634919
Fe       4.78003827       3.79291308       2.95368411
Fe       6.65869012       3.78930786       7.71697859
Dy       4.75970290       6.08511019       7.43861203
Fe       4.74567043       6.07426671       4.21012601
Fe       2.15435201       0.94492847       4.47879050
Fe       4.37527721       2.91017742       7.00801179
