12
Lattice="4.363242065122567 0.08310638763833697 -0.8995057809547614 -2.6034255529426784 6.211220775437251 -0.6862951682209107 -0.14602502119917632 0.26112425333745 12.770318919663486" Properties=species:S:1:pos:R:3:forces:R:3 structure_index=0 total_energy=-37.11445617675781 stress="0.008542330004274845 -0.00011927304876735434 3.6989506043028086e-05 -0.00011915968207176775 0.007962244562804699 -0.00010780521552078426 3.7168851122260094e-05 -0.00010767966887215152 0.008093910291790962" pbc="T T T"
Te       0.85303640       4.96824041      11.02760725      -0.00194509       0.00609812       0.00303042
Hg       0.82502431       1.97365209      -0.30331294      -0.05019126      -0.00619250      -0.00988878
Te       2.26730102       1.60785315       5.29914950       0.00928238      -0.00087729       0.00246382
Te       2.75029656       3.77009810       8.71784698      -0.00235374      -0.00061404       0.00232103
Ge       3.17165977       1.11676214       9.73559848      -0.00935069      -0.00837741      -0.00760320
Te      -0.38466386       3.27035782       2.40263217       0.01909027       0.00924778       0.00928692
Hg       0.31380822       2.73264040       7.41153288       0.00497782      -0.00197785       0.00315460
As       0.31946864       5.41191370       5.80660029       0.00736790      -0.00210515      -0.00117476
As       0.40107743       0.18300015       8.84628373       0.00098726      -0.00831307      -0.00220486
Te      -0.93489188       5.79152680       0.58053980      -0.00145449       0.00538268       0.00164244
Te      -0.23589039       0.41799843       3.75793400       0.00562293       0.00461249      -0.00125536
As       1.64003807       4.42621590       3.78992751       0.01796677       0.00311629       0.00022775
