16
Lattice="3.2725848024061777 -0.010983660542136273 0.5562088534491032 1.8625443502734222 6.296684235924324 -1.0675323201512534 -0.027411787181695874 -0.06569114090735104 10.162585604263182" Properties=species:S:1:pos:R:3:forces:R:3 structure_index=0 total_energy=-109.8234634399414 stress="0.013043679296970367 0.00025587662821635604 -0.001321227289736271 0.00025604761322028935 0.01695280335843563 0.0045276423916220665 -0.0013198336819186807 0.0045258584432303905 0.01726839318871498" pbc="T T T"
Li       2.89458848       3.41441711       3.32200247       0.00403321      -0.01886826      -0.01689395
Li       1.60201885       0.88044604       1.01899705       0.00126356      -0.01309526       0.00453353
Mn       2.10492285       5.26965592       8.04285985       0.00215238       0.00119370       0.01221828
O        3.71148258       4.16626903       8.48065887       0.00159242       0.00886208       0.00207743
B        1.04705029       1.60141970       4.27455739      -0.00295860       0.00529827       0.00220343
Mn       4.80105859       5.59284743       2.00157462      -0.00043351      -0.01259332       0.00564587
O        1.79074430       2.40942533      -0.12496245       0.00280353      -0.02965176      -0.02172125
Li       2.33100611       0.40294462       6.55491659      -0.01310670       0.04591446       0.00419036
O        3.16745981       4.29010163       1.69770155       0.00129094      -0.01722443      -0.01119564
Mn       4.06535837       3.64740911       6.38794720       0.00560176       0.02647645      -0.01101516
O        3.26604528      -0.08381384       1.12250547      -0.00191119      -0.00661424       0.01340777
Mn       3.43711632       3.24359931       0.10707886       0.00275496      -0.02013651      -0.00993152
O        1.21109868       0.60462307       3.33115312      -0.00334762      -0.00899380       0.01749659
O        1.11654238       2.94657319       3.87316243       0.00085434       0.00314666      -0.00557560
O        0.81206789       1.36891647       5.63225126      -0.00666331       0.02384427      -0.00239782
O        2.42990121       4.99523153       6.14388290       0.00607400       0.01244140       0.01695785
