10
Lattice="3.5808589458465576 0.0 -0.02104431763291359 -1.8255963498610588 6.650759469431425 -0.41877561807632446 0.0 0.0 9.973730087280273" Properties=species:S:1:pos:R:3 pbc="T T T"
Si      -0.77735867       3.09879572       9.04195459
Eu       1.00132075       5.32260908       0.86114591
Eu       0.99893023       5.80516185       4.94370330
Eu       1.02447100       0.35581317       8.42707788
Si      -0.78467423       3.99934889       3.23657043
Eu       2.80435910       2.41094828       5.82303691
Si       1.00649163       4.23032109       7.79874449
O        1.02678873       0.02997789       0.79210722
Eu       1.01377710       2.07036255       1.65656915
O        1.02695717       0.72815887       5.97381016
