16
Lattice="4.912473678588867 0.0 -0.3061021864414215 -0.005379807529540997 4.877006901400246 -0.3629879057407379 0.0 0.0 6.63554048538208" Properties=species:S:1:pos:R:3 pbc="T T T"
Mn       2.40467552       1.28755394       4.07491029
Mn       4.31178977       1.45840847      -0.14206028
Mn       1.60479048       4.72859629       1.90244947
Mn       4.10058942       0.48909595       2.12805455
Mn       3.38621766       2.95800628       1.92846443
P        3.37314289       2.94401904       5.22790816
Mn       1.75882873       2.13891339      -0.25210038
Mn       0.95240017       2.25640495       2.05961376
Mn       0.16521798       3.93402067       0.05197348
Mn       2.55176258       4.64941346      -0.31758442
Mn       1.64547020       3.80977008       4.14741173
C        2.58940071       1.29430280       1.33320664
Mn       0.00465769       2.03245767       4.32697848
C        0.90781011       0.54602022       5.56874911
C        0.14444717       3.75193046       2.82928514
Mn       4.19112558       4.57645087       4.10166785
