12
Lattice="2.68441104888916 0.0 -0.0013582260580733418 -1.3478672025104574 4.460623208110829 -0.6872945427894592 0.0 0.0 11.039713859558105" Properties=species:S:1:pos:R:3 pbc="T T T"
Ni       2.01844303       0.76217111       4.55146963
Mn       0.67267948       3.79110008       1.92621568
Mn       0.67095826       3.86177703       7.82315883
Fe      -0.66786645       2.45182600       0.55654014
Mn       0.67690750       1.36040081       2.33533022
Ni      -0.67009213       4.28675281       5.79859770
Mn       2.01825316       0.09712724       0.49165671
Fe       2.01788465       1.78460534       7.44390489
P        0.67574142       2.33390209       5.65799230
P       -0.67126932       3.25445955       9.47380085
Fe      -0.67002779       3.01368931       3.69656970
Mn       0.67352843       1.28323728       9.65523457
