9
Lattice="4.893182515631297 -2.600363134724242e-05 -0.0003573313038270465 2.5889202102295053e-05 4.89413427170126 -0.001514291022341701 0.0014067735174195712 -0.0005220011712939724 13.081052300486153" Properties=species:S:1:pos:R:3:forces:R:3 structure_index=0 total_energy=-59.88605499267578 stress="0.02011013589799404 -2.0784307253052248e-06 -6.602417101930769e-07 -2.1789942366012838e-06 0.020047318190336227 -1.9669952962431125e-05 -7.640203989467409e-07 -1.9811182937701233e-05 0.02210409566760063" pbc="T T T"
K        3.36359169       4.60237249       0.15909138      -0.00001227       0.00049698      -0.01606793
Eu       0.91716885       4.60361325       3.75429669       0.00014091       0.00054883      -0.00386917
O        3.36385069       4.60391367       4.19504721      -0.00005634      -0.00010859       0.03902933
Sb       0.91743572       2.15777283       6.09071153      -0.00014238      -0.00082151       0.02590904
Eu       3.36408601       4.60474051       6.63328596      -0.00010845       0.00001518       0.00607388
K        0.91860188       2.15777406      10.25969213       0.00058951       0.00012777       0.03555132
Sb       0.91700553       2.15604513       1.70631717       0.00003508      -0.00025938      -0.03551026
Sb       3.36570631       4.60514197       9.69445596      -0.00061937      -0.00056410      -0.04670106
Eu       3.36372406       2.15652633       3.75554056       0.00017329       0.00056480      -0.00441508
