12
Lattice="4.063140124781302 0.0014632132671472849 0.0022407353021690417 -2.0327934652567654 3.5189597613115695 8.457671669433384e-05 -0.006696958507998236 0.0020024092790262736 10.231009592175319" Properties=species:S:1:pos:R:3:forces:R:3 structure_index=0 total_energy=-90.1766128540039 stress="-0.034974340349435806 -0.0005445170681923628 0.0006559471949003637 -0.0005445557762868702 -0.0355827733874321 -8.567917393520474e-05 0.0006570567493326962 -8.475151844322681e-05 -0.03827372565865517" pbc="T T T"
Fe       2.33285883       2.58094454       6.61454720       0.00408759      -0.00441044       0.02123633
Fe       2.33337663       0.23104036       9.96052768      -0.00469659       0.00159073       0.00570641
Fe       2.33395257       0.23288760       7.52018622      -0.00189932       0.00249866      -0.00400163
Fe       0.30244597       1.40757783       5.73619571      -0.00252726       0.00013510      -0.01299787
Ge       0.30707685       1.40148064       0.44603546       0.00034599       0.00431454       0.00580436
Fe       2.33694104       2.57601882       1.48007539      -0.00053809       0.00292392       0.02940643
Fe       2.33419066       2.58111930       3.99775928       0.00115348      -0.00466070       0.01684855
Fe       0.30170885       1.40472721       8.21562005      -0.00037169       0.00209249      -0.01317983
Ge       2.33662005       0.23121524       2.32229048       0.00148667      -0.00166772      -0.00735985
Fe       0.30383216       1.40490882       3.15601756       0.00045078       0.00047810       0.00084471
Fe       2.33255725       2.57795567       9.13681017       0.00025920       0.00159931       0.00724041
Ge       2.33435174       0.23563393       5.07592444       0.00224933      -0.00489395      -0.04954818
