16
Lattice="3.2722673012246783 -0.010571518557578296 0.5559149257803134 1.862832527057495 6.30009269184597 -1.0649467408899995 -0.02721263036296853 -0.06276307692895321 10.156132205459908" Properties=species:S:1:pos:R:3:forces:R:3 structure_index=0 total_energy=-109.82222747802734 stress="-0.004575508181005716 0.0007781615713611245 0.00014791739522479475 0.0007782527827657759 -0.0027087058406323195 0.0004989994340576231 0.00014750265108887106 0.0004993956536054611 -0.008245313540101051" pbc="T T T"
Li       2.89408207       3.42061986       3.32342960       0.00398208      -0.02050332      -0.01706585
Li       1.60174740       0.88318517       1.01855348       0.00129314      -0.01316483       0.00265167
Mn       2.10516349       5.27528750       8.03747273       0.00182924       0.00082427       0.01190466
O        3.71143851       4.17132357       8.47620741       0.00139160       0.00703287       0.00279802
B        1.04738508       1.60238919       4.27262998      -0.00260099       0.00699374       0.00119504
Mn       4.80110714       5.59923667       2.00111849      -0.00068566      -0.01323949       0.00676042
O        1.79037965       2.41479237      -0.12138228       0.00263724      -0.02998266      -0.02043015
Li       2.33255757       0.39821045       6.55046944      -0.01222497       0.04943858       0.00429894
O        3.16738059       4.29629223       1.69889995       0.00091005      -0.01802886      -0.00874881
Mn       4.06475460       3.64844927       6.38598060       0.00530216       0.02501654      -0.00943798
O       -0.00625193      -0.07089783       0.56352488      -0.00204725      -0.00691589       0.01458907
Mn       3.43666973       3.24848950       0.10966124       0.00265441      -0.02161019      -0.01101058
O        1.21125180       0.60698195       3.32773810      -0.00258783      -0.01064569       0.01383063
O        1.11658842       2.94791261       3.87257380       0.00141113       0.00615610      -0.00818308
O        0.81293106       1.36802634       5.62979510      -0.00662455       0.02371716       0.00105432
O        2.42977668       4.99691922       6.13860735       0.00536015       0.01491159       0.01579322
