12
Lattice="6.162158192675577 0.010638408116456109 -0.01616255082455019 -0.010440359610573532 7.50517749585496 -0.003905649330712585 0.04060785596445719 0.018312619929942715 10.799140791245437" Properties=species:S:1:pos:R:3:forces:R:3 structure_index=0 total_energy=-111.08511352539062 stress="-0.00816284492611885 0.0007795640849508345 0.002208741381764412 0.0007795566343702376 0.008920588530600071 0.0013492036378011107 0.0022087700199335814 0.0013492029393091798 0.002371950075030327" pbc="T T T"
Eu       3.95814410       3.43662737       2.36855898      -0.00352245      -0.00302687       0.01101629
Eu       0.88554496       7.18780595       7.58297351       0.00478438      -0.00093216      -0.01451477
Nd       0.82485776       5.30227234       4.07169022       0.02266250      -0.00177570       0.03857815
Nd       4.02471126       1.54535450       5.87453722      -0.02081368       0.00310950      -0.03388101
Eu       0.89115737       3.41063142       7.58271853       0.00424615       0.00113059      -0.01387067
Eu       0.84437025       1.53778607       0.50562479      -0.00056053       0.00421906       0.00320461
Eu       3.95610812       1.55307736       9.40560963       0.00873344      -0.00109267      -0.00942856
Eu       3.90929883       5.30183983       5.82819677       0.01440324      -0.00279581      -0.02623344
Eu       4.00446910       5.30473966       9.44245734       0.00178724       0.00063240      -0.00103374
Eu       0.94234480       1.54881537       4.12087017      -0.01776750       0.00044045       0.02594318
Eu       3.95161760       7.16265108       2.36661903      -0.00296861       0.00367831       0.01007983
Eu       0.89438906       5.29419515       0.54173757      -0.01098418      -0.00358710       0.01014015
