8
Lattice="4.513437747955322 0.0 0.03212747350335121 0.05374004311484469 5.926804573116776 0.052080150693655014 0.0 0.0 7.6731977462768555" Properties=species:S:1:pos:R:3 pbc="T T T"
Pd       0.53516006       0.28589491       2.81776602
Eu       0.57684487       4.63442737       5.58215277
Eu       0.56214256       3.22338808       1.72604848
Eu       2.79418242       0.26062964       0.67109470
Pd       0.54636148       1.64136725       6.66894215
Eu       2.80502183       1.65794297       4.50986200
Pd       2.82204418       3.25692000       7.24928018
Pd       2.83191296       4.60165780       3.43904013
