4
Lattice="3.488942184750678 0.0011177676020540622 -1.859818844236915 -0.9867287714992302 3.351374693547249 -1.8480915896845809 0.31957721757995566 0.41233179508362733 4.809610663088246" Properties=species:S:1:pos:R:3:forces:R:3 structure_index=0 total_energy=-31.398521423339844 stress="-0.011943730525672436 -0.06984435021877289 -0.05228335037827492 -0.06984362006187439 -0.06636452674865723 -0.053789522498846054 -0.052283454686403275 -0.053790267556905746 0.0263077262789011" pbc="T T T"
Hf       2.56511313       1.96660945      -2.21329153      -0.00001555      -0.00260446      -0.00030591
Pt       1.60605608       3.00942274       0.19368674       0.00034542       0.00139274       0.00414681
Ni       1.31381027       0.28989683      -0.35952626       0.00059030       0.00045540       0.00045390
Pt       0.35490139       1.33402823       2.04911725      -0.00092014       0.00075625      -0.00429486
