12
Lattice="5.851933479309082 0.0 -2.021482467651367 -1.0193533245204025 5.774687032018561 -2.0450243949890137 0.0 0.0 8.964678764343262" Properties=species:S:1:pos:R:3 pbc="T T T"
Ge       0.50389087       5.22554914      -1.24528329
Eu       2.19473144       2.35097108       0.26389774
Eu      -0.08032012       2.70652951       3.45856518
Eu       2.93651163       0.17239326       3.47329241
Eu       4.10648697       4.65222548      -1.35593958
Ge       2.16131440       2.32667550       5.56833098
Ge       3.09843052       3.44402864       3.08558917
Ge       0.29858038       0.09547790       5.43161434
Eu       5.22886765       2.49602651       4.98700837
Ni       4.67891774       5.32918756       3.84804338
Ge       5.29748644       1.19896398      -1.24412373
Eu       1.79045903       5.38901987       4.97186117
