11
Lattice="4.00899935998428 -0.000863316006807169 0.0006736389636187426 0.0029920416615036726 7.0924248854415755 -1.2093015997345307 -0.0009846734563312206 -0.00749178947439629 7.686455302688047" Properties=species:S:1:pos:R:3:forces:R:3 structure_index=0 total_energy=-94.44820404052734 stress="0.01425320003181696 6.508524529635906e-05 0.00019466847879812121 6.521502655232325e-05 0.033829640597105026 0.006794988643378019 0.00019457000598777086 0.006794196553528309 0.01616968959569931" pbc="T T T"
Eu       1.26950087       1.82770485       6.72249175      -0.00043177      -0.00046614      -0.00002004
Eu       1.27300491       6.98934803       1.65160340      -0.00134341       0.00105576      -0.03527981
Mn       3.27682547       6.55002548      -0.89898739      -0.00060343      -0.02385077      -0.01203321
Mn       3.27533595       4.20416882       5.44891767      -0.00089384       0.02376659       0.01193225
Mn       1.27218672       5.86452545       5.11396124      -0.00102729      -0.00063953       0.01633802
Ge       3.27423086       1.85317482       1.48142725       0.00046464      -0.01564391      -0.00405866
Eu       1.26931214       3.76502323       2.89772607       0.00237334       0.00029751       0.03554404
Ge       3.27436752       1.80829053       4.27780287      -0.00030854       0.01523020       0.00418061
Mn       3.27428210       4.16235732       0.39912492       0.00201082       0.00299112       0.00163923
Mn       1.27062976       4.89076326      -0.56474286       0.00142815      -0.00007496      -0.01665577
Mn       3.27736394       6.59169605       4.15084479      -0.00166867      -0.00266598      -0.00158656
