6
Lattice="4.943511962890625 0.0 -2.8559017181396484 -1.664773693334027 4.67893495052185 -2.857386827468872 0.0 0.0 5.728630065917969" Properties=species:S:1:pos:R:3 pbc="T T T"
Eu       3.69537248       1.86770767      -0.92506785
Eu       2.10200479       3.05769970       1.93972933
Pt       3.73283344       0.12443858       1.93297445
Au       1.26032706       0.12549255       0.50026104
Au       1.26078661       0.12245894       3.36440143
Au       0.42650090       2.46283393      -0.92775968
