8
Lattice="6.730416638617934 -0.0009769478662218609 3.8894649649234014 2.2402900582544016 6.345726744051373 3.892271573449481 -0.0029754411465107962 -0.003574325728785784 7.774730560391141" Properties=species:S:1:pos:R:3:forces:R:3 structure_index=0 total_energy=-77.94889831542969 stress="0.0017346033127978444 -0.0008634006953798234 -0.00010576164640951902 -0.0008634440018795431 0.00200503203086555 0.0009090100647881627 -0.0001057122353813611 0.0009090286330319941 0.003151440527290106" pbc="T T T"
Eu       4.38609417       0.03123926       5.29341097       0.00149419      -0.00316327       0.00148733
Eu       5.50636516       3.20101774      11.12857971      -0.00353909       0.00132341      -0.00296431
Eu       1.02286405       0.03276402       3.35135128      -0.00229536       0.00047544      -0.00162157
Eu       4.38605625       0.02812398       9.18374926       0.00056544       0.00037883      -0.00268083
Eu       2.14100397       3.20128580       9.17857155       0.00066887       0.00179382       0.00895727
Eu       1.02163879       0.03006441       7.23847445      -0.00178081      -0.00474458       0.00030610
Eu       2.14126287       3.20260029       5.30192750      -0.00110383       0.00337557      -0.01062312
Y        5.50230144       3.20254658       7.23364112       0.00599057       0.00056079       0.00713913
