10
Lattice="4.712623596191406 0.0 2.4938511848449707 1.7041400832697633 4.388885648966919 2.497756242752075 0.0 0.0 5.7167887687683105" Properties=species:S:1:pos:R:3 pbc="T T T"
Mn       2.17146427       1.51216288       4.64130203
Gd       3.54374117       2.44930726       7.75742656
O        4.12380312       1.86930388       4.36362502
Mn       5.27520096       3.63345193       4.48778281
O        2.18943950       0.57486337       2.87004754
Fe       0.19122288       0.15678279       2.68331748
O        5.02256332       0.87914936       7.14224395
O        1.95906444       2.70838683       6.18533207
O        2.87645377       0.00423266       5.69264260
O        1.82142306       3.20147729       3.62997483
