6
Lattice="2.787453448059808 -0.2606049082775608 -1.1450190001325382 -2.079601933125253 4.572465510483643 -6.093058775955148 1.4183242777514564 0.3893535942433401 10.042776585008998" Properties=species:S:1:pos:R:3:forces:R:3 structure_index=0 total_energy=-23.431711196899414 stress="-0.03802594169974327 0.002475085901096463 0.003382200375199318 0.0024751874152570963 -0.04028410464525223 -0.004301362670958042 0.0033824308775365353 -0.004301697947084904 -0.039840973913669586" pbc="T T T"
In       3.03783141       0.44964766       3.08802823      -0.06059363      -0.00531927       0.01963951
Ga      -0.40858385       3.00004259      -4.27203224       0.05695061       0.00228350      -0.01328981
In       2.72584607       0.92935738       6.48356881       0.00828223      -0.00015180      -0.00272220
Ga       0.87219532       0.19024507      -0.53080473       0.05222515       0.00598463      -0.01755844
Ir       1.63241760       2.98042234       3.27882145       0.00287247      -0.00154480      -0.00137835
In       2.14727700       2.40340864       0.48578095      -0.05973681      -0.00125225       0.01530931
