16
Lattice="5.820098876953125 0.0 -0.0020872345194220543 -0.019081629796710457 5.813653625468129 -0.007109515368938446 0.0 0.0 9.121458053588867" Properties=species:S:1:pos:R:3 pbc="T T T"
Eu       2.32012097       1.64414917       7.86400965
Eu       5.22338076       4.54943258       7.86023150
Pt       1.26694647       5.58973780       1.02015787
Pt       5.23385401       1.63891896       3.30218745
Pt       0.46240368       2.69249991       1.02437743
Pt       4.18550991       0.59177724       1.02732199
Pt       5.22943049       1.64223898       7.87043066
Pt       2.31599306       4.54929328       7.86043218
Pt       0.45102181       2.68370244       5.58490615
Eu       2.32339697       1.64066006       3.30810862
Pt       4.19294390       0.60208380       5.58850065
Pt       1.26526419       5.59109963       5.57919478
Eu       5.22254445       4.54465337       3.30159827
Pt       2.31123308       4.54990558       3.30041171
Pt       3.36151260       3.50675508       5.58216822
Pt       3.35942258       3.50207948       1.01898986
