16
Lattice="3.74513840675354 0.0 -0.004390607122331858 0.00015485944833901893 3.4970550502821314 0.007053907494992018 0.0 0.0 16.742431640625" Properties=species:S:1:pos:R:3 pbc="T T T"
S        0.12743148       0.54373863       0.68706355
Gd       0.14528001       0.54185531       6.45461738
Fe       2.00923675       0.54931635       8.79108942
Li       0.13340495       2.28973719       3.63875817
Fe       1.99758948       2.29025225       0.58611636
Gd       0.12865580       0.55194817      14.78150124
Gd       0.13086812       0.55791203      11.15707386
O        0.12827155       2.30105052      13.00205623
O        2.01413234       2.28799942       6.75541450
O        2.00837651       2.30533336      10.82867761
Fe       2.00867374       0.53844366       3.13832538
O        0.13663539       0.54121999       4.26765841
Fe       2.00608876       2.30282290      12.98129591
O        2.00443459       2.30169773      15.07840260
O        2.00328800       2.28931489       2.74964884
O        0.14003435       0.54894960       8.83174712
