11
Lattice="5.050621032714844 0.0 -0.010241631418466568 -1.3997755400387744 4.872507426654532 0.611258864402771 0.0 0.0 6.545302391052246" Properties=species:S:1:pos:R:3 pbc="T T T"
H        3.06584520       0.17189838       2.90793137
O        3.99578975       3.48631535       4.34629668
O        1.09861707       1.85929333       4.20639983
O        3.24315792       2.17264304       6.28502263
Cu       2.56589985       3.59601259       5.42388400
Cu      -0.36018735       1.99744269       5.22159004
O        0.35692850       0.52354773       6.12755789
O        1.13111885       3.83036652       6.46595267
Tl      -0.11336428       2.81138752       1.88552530
Cu       1.75870877       0.39616908       5.05202221
O        3.26829340       0.23873336       3.93320444
