14
Lattice="5.995846748352051 0.0 -0.02685900218784809 0.2676026450325254 6.006199911527355 0.09335163235664368 0.0 0.0 6.971585273742676" Properties=species:S:1:pos:R:3 pbc="T T T"
Na       1.98413492       1.99226795       6.81832290
Ca       3.31297668       0.58732219       3.09193609
F        0.37217806       0.38798328       6.81190203
U        5.11356439       4.98843869       6.86934689
F        5.38540697       4.70951288       2.03114157
F        2.14214226       1.78758329       4.62879188
F        3.50568704       0.42338040       0.62911113
F        1.84510649       2.13908860       2.05262812
F        4.80882318       5.30374097       4.77737922
F        3.59701640       3.57038516       6.86075425
Ca       0.66638517       3.35906072       3.57881131
F        4.98385315       1.97823678       3.32447289
F        2.11534689       4.96938427       3.37152133
F        0.47245110       3.55826480       6.02405774
