14
Lattice="6.149598205266777 -0.21978160782374284 -0.10819951234441823 0.05332110123060249 6.185487085096471 0.1567176751320831 -0.09421217945710426 0.076480939640544 7.05314127861194" Properties=species:S:1:pos:R:3:forces:R:3 structure_index=0 total_energy=-85.09639739990234 stress="-0.008469227701425552 -0.0008560109417885542 -0.0010981778614223003 -0.0008565048919990659 -0.008367751725018024 0.001450509880669415 -0.001097145490348339 0.0014522364363074303 -0.0041657243855297565" pbc="T T T"
Na       1.87204851       2.04844832       6.89975331       0.00001186      -0.00043489      -0.00002794
Ca       3.10580547       0.75302564       3.19684976      -0.00329471       0.00378475      -0.00761141
F        0.27201320       0.46716296       6.88939970       0.00252771       0.00308520       0.00013380
U        4.97104119       5.03372444       6.93424099       0.00004254      -0.00061676      -0.00101153
F        5.58739236       4.39101379       1.82521657       0.02580371      -0.02737591      -0.01951206
F        2.02180582       1.87965531       4.74846861      -0.00289901       0.00651616      -0.00117293
F        3.68121447       0.19505910       0.58427964       0.01526701      -0.01728672       0.04295072
F        1.80633496       2.12160855       1.99748126       0.00302335      -0.00546650       0.00151005
F        4.44466485       5.60267069       4.99253478      -0.02500388       0.02669662       0.01732719
F        3.46698278       3.63394189       6.92649146      -0.00264376      -0.00399810      -0.00161440
Ca       0.72979788       3.25208785       3.54564424       0.00302286      -0.00256006       0.00887934
F        4.99237025       1.89334541       3.31340571      -0.00034001       0.00111577       0.00168828
F        1.95470163       5.08867277       3.43985000      -0.00055505       0.00087600       0.00249522
F        0.15213987       3.83132548       6.18009298      -0.01496232       0.01566482      -0.04403421
