12
Lattice="4.417473316192627 0.0 0.0015301178209483624 -2.2247411507731267 3.817212450370882 -0.002285508904606104 0.0 0.0 12.425925254821777" Properties=species:S:1:pos:R:3 pbc="T T T"
Zn       2.30472485       0.80653177       4.50328760
Zn       0.09521263       2.07603083      10.71314355
Zn       2.30560314       0.80590079       8.68124935
Zn       0.09408296       2.07590091       2.47262150
Gd       2.29845168       3.34876458       6.59514067
Pt       2.29504284       3.35027011       3.49439793
Pt       0.09300478       2.07730428       5.08479535
Pt       2.30578422       0.80461472       1.88514362
Pt       2.30547053       0.80523381      11.30389482
Gd       2.29320109       3.35132763       0.38166495
Pt       2.29728035       3.34933635       9.70280045
Pt       0.09490325       2.07741258       8.10163098
