12
Lattice="4.835502616930407 0.00145708667252451 1.4590808208677468 2.1958926503416456 4.307700591698788 1.4604636229262062 -0.002764495641536386 -0.004098743238756591 8.751520452352809" Properties=species:S:1:pos:R:3:forces:R:3 structure_index=0 total_energy=-87.5094985961914 stress="0.031014123931527138 -0.00018692712183110416 0.0008304408984258771 -0.0001870357955340296 0.03129816800355911 0.0006246379925869405 0.0008308317046612501 0.0006235313485376537 0.028886863961815834" pbc="T T T"
Eu       5.28205431       4.19895998       8.59722303       0.00590927       0.00339229      -0.01025010
Eu       4.39008186       3.65420171       2.81382053       0.00515343       0.00095309      -0.01675184
Ni       4.38667025       0.68945793       2.82884632      -0.00213648      -0.00069512       0.00344471
Mn       0.84325376       1.47855431       5.82746382       0.01144822       0.00813989      -0.03970108
Eu       1.71194811       2.01191160       2.94872226      -0.00392747      -0.00169351       0.01450868
Ni       2.42434892       3.94621625       9.32683861      -0.00343987      -0.00700023       0.01794337
Ni       1.31392224       1.76703282       8.58936532      -0.00372280      -0.00335193       0.01492336
Ni       3.06833522       2.84221992       7.19277299       0.00275240       0.00194601      -0.00288073
Ni       4.80743745       3.90751817       5.81160988      -0.00842506      -0.00235214      -0.00316855
Ni       3.75997984       1.76757184       9.32712983      -0.00890826      -0.00196839       0.01347926
Ni       2.38507510       3.90741601       5.08002930       0.00368314      -0.00292489       0.00471671
Ni       3.70638279       1.75033337       5.07936853       0.00161338       0.00555480       0.00373622
