4
Lattice="4.139800082619683 0.0008954012964973744 -0.0007453546208489299 -0.0014698362407482553 5.553906068030838 -0.0005395626384748653 0.0008533001584503052 0.0001983328777289266 5.554488799657567" Properties=species:S:1:pos:R:3:forces:R:3 structure_index=0 total_energy=-27.101743698120117 stress="0.025448236614465714 -0.0007333935354836285 -0.000498951761983335 -0.0007333848043344915 0.05642305687069893 -0.00037665318814106286 -0.0004989149747416377 -0.00037661707028746605 0.058920443058013916" pbc="T T T"
Eu       3.44538027       1.09867659       1.45137039      -0.00287486       0.00006581      -0.00551621
Cd       1.37395971       1.09822299       4.23167914       0.00329623      -0.00041152      -0.00074957
Eu       3.44663426       3.87528022       4.21670674      -0.00490288       0.00069410       0.00088090
Pb       1.37297041       3.87541622       1.43510730       0.00448151      -0.00034841       0.00538487
