11
Lattice="5.089111804962158 0.0 0.8791784644126892 -1.8965157021546022 5.205925424728706 -2.7167322635650635 0.0 0.0 5.174733638763428" Properties=species:S:1:pos:R:3 pbc="T T T"
Mn       1.42350243       2.65980732      -0.70666029
Mn      -0.93625222       3.94913402      -0.79322497
Mn       2.83079868       1.02245998       0.58886813
Mn       1.72061460       5.00298011       0.09376170
C        0.96099647       4.29288048      -1.60797751
As       3.74619621       2.14294459       3.68222724
As       0.18407832       1.10168400       0.74063762
Mn       0.48996579       3.46332196       1.84467136
Mn       2.79662307       4.17931259       2.66340424
As       1.41553851       0.38318199       3.60714980
C        2.35674797       3.24711702       0.95311985
