6
Lattice="2.8630950450897217 0.0 0.0025204315315932035 -0.004698064142572897 4.279417320154421 -0.007614642847329378 0.0 0.0 4.662364959716797" Properties=species:S:1:pos:R:3 pbc="T T T"
Fe       0.48212691       2.36769350       2.23175999
Co       0.48302377       0.29999171       0.71680681
C        1.91392424       1.32303180       1.49199127
Fe       1.91232451       2.44002002       4.56533975
Co       1.91603680       0.22738503       3.04903854
C        0.48060876       3.48346343       3.81801396
