12
Lattice="4.492745780398338 -0.002371616763967225 1.3401450033719575 2.048117250599176 3.998352614568849 1.3414673993517132 -0.010926326208492567 -0.009200354320671277 8.237132524502305" Properties=species:S:1:pos:R:3:forces:R:3 structure_index=0 total_energy=-107.1212158203125 stress="0.019297229126095772 0.00012389355106279254 -0.0007538478239439428 0.00012347240408416837 0.01917191594839096 -0.00043443450704216957 -0.0007536141201853752 -0.00043385615572333336 0.02153501845896244" pbc="T T T"
Fe       2.91130120       1.06165478       4.33324503      -0.00891292      -0.00675913       0.03832399
Fe       1.10660359       1.31775447       6.33118149      -0.01583157       0.00767491      -0.00202405
Fe       4.35865757       3.31221972       3.61017089      -0.01935140       0.01826306      -0.02425778
Fe       4.36448357       3.33627653       7.67106439       0.00070781      -0.01778103      -0.00034358
Fe       3.32994362       1.31642991       6.99520251       0.01316352       0.00727360       0.00582032
Ta       1.70412118       3.06953259       8.38976324      -0.00379776      -0.00243582       0.00765910
Co       4.97038167       2.31845580       5.63582577      -0.00242097      -0.00070512       0.01184472
Co       1.69460357       0.31588651       8.41491502      -0.00096785       0.00015005       0.00487825
Fe       2.10148443       3.31356058       2.93726234       0.02891027       0.01842211      -0.01007292
Fe       1.08275159       1.32386345       2.26944655       0.00621935      -0.02512673      -0.02495673
Mo       3.71422793       1.55240326       1.64753325      -0.00141234      -0.00103848       0.00607572
Mo       2.54504228       3.58425126       5.56961602       0.00369404       0.00206267      -0.01294695
