11
Lattice="5.518886566162109 0.0 -1.6423834562301636 -0.1818177984787029 7.282758747154819 -0.6019136309623718 0.0 0.0 10.125727653503418" Properties=species:S:1:pos:R:3 pbc="T T T"
Li       0.50297089       2.00215445       3.17060623
Eu       4.26777821       3.28585167       5.75348671
Eu       3.58224042       0.21778194       3.41415467
Li       5.23041652       2.70051436      -1.13334780
Eu       1.04119017       5.10439762       4.99149936
Gd       1.43902158       1.38450962       6.32117287
Gd       2.50122783       0.92021010      -0.20726778
Eu       4.45859282       6.94344698       6.41046786
Eu      -0.01440135       6.07474273       1.43053032
Eu       2.11019178       4.52836170       8.58478401
Eu       3.16317868       3.78002218       2.01461456
