10
Lattice="3.439060688018799 0.0 -0.0020012042950838804 -0.006580483216475588 3.4379474127983127 0.0006891938974149525 0.0 0.0 16.990568161010742" Properties=species:S:1:pos:R:3 pbc="T T T"
Gd       1.92683546       1.00298832       6.84129557
Gd       1.92222519       1.00575491       0.08321082
Dy       1.92510582       1.00373022       3.46592183
Gd       1.92486139       0.99981435      13.65254711
Gd       1.92198259       1.00045707      10.24811816
Rh       0.20229124       2.72215844       5.13376124
Rh       0.19988893       2.72305802       1.80807269
Rh       0.20131828       2.72225864      15.36632154
Rh       0.20177081       2.72232053       8.54092920
Rh       0.20181580       2.71877094      11.94787886
