9
Lattice="3.565551996231079 0.0 -0.5605109930038452 -0.08989919512916206 3.5663922693840786 -0.5602608323097229 0.0 0.0 11.630582809448242" Properties=species:S:1:pos:R:3 pbc="T T T"
Eu       0.73933897       3.35196109       6.98641586
O        2.57552629       1.57759687       7.03037752
Eu       2.18654999       1.17933118       4.56928357
Eu      -0.03235982       2.55984680       2.07409095
Fe       1.50849848       0.48171741       0.24388472
O        1.81003809       0.79133106       2.17141765
O        1.20768510       0.17366911       9.94675228
O        0.35227041       2.95498467       4.52561891
Eu       2.95910223       1.97025070       9.48172070
