8
Lattice="3.170881509780884 0.0 -0.046908266842365265 -0.008384275326804549 5.331908309719319 -0.04892289638519287 0.0 0.0 5.9276227951049805" Properties=species:S:1:pos:R:3 pbc="T T T"
Mn       2.80434600       3.41669510      -0.04694152
As       2.79911906       4.43555192       2.16863966
Mn       1.21574166       3.34621293       3.65137089
P        1.21475049       5.05719160       5.15047098
P        1.22115919       2.34347177       1.38179619
P        2.80611916       1.75072482       4.35652477
Mn       2.80755943       0.79934008       0.58876974
Mn       1.22220694       0.76388114       3.02130983
