12
Lattice="6.763763427734375 0.0 3.4397029876708984 2.524173350713426 6.2588394519900605 3.388483762741089 0.0 0.0 8.058611869812012" Properties=species:S:1:pos:R:3 pbc="T T T"
N        4.67905312       6.00984283      10.17212098
Li       6.79190710       2.87357396       6.17035029
Eu       5.88245953       4.71195360      11.93558052
Eu       2.32608977       4.42477023       6.70728846
Eu       5.42549667       4.40986854       8.43229382
Eu       2.54652264       4.56992153      10.23682815
Eu       0.94923021       1.04610149       5.01577052
N        3.41002020       2.88082199       8.47947614
Eu       1.40183416       1.34491798       8.52464334
Eu       4.28342804       1.18903832       6.71929746
Eu       4.50040318       1.33040968      10.25297144
N        8.05888157       6.00589857      11.89151351
