20
Lattice="4.666450500488281 0.0 1.6885879039764404 2.5250765208908335 6.25930501741815 1.0306377410888672 0.0 0.0 6.662475109100342" Properties=species:S:1:pos:R:3 pbc="T T T"
Fe       2.15703316       0.82425510       5.25120567
Fe       5.06116968       6.09277927       8.56450714
Fe       3.19694282       4.47334305       2.93107353
Fe       4.63689750       3.77864905       7.62581095
Fe       5.75300568       3.95579039       3.27819464
H        1.11147429       2.26853893       5.61130791
Ni       0.70383202       1.68233848       0.60015331
Fe       3.57267010       0.13227362       3.26957504
Fe       1.46330819       2.96313126       3.87499415
Ni       2.86968258       2.17529375       1.92016220
Fe       4.26817679       1.34222309       6.59062594
Ni       6.46933261       5.30355070       6.61158252
Fe       2.50156201       3.26454382       6.27101336
Fe       1.04423563       0.64821233       2.93003278
Ni       4.30108894       4.81121271       5.29041357
Ni       2.85017683       5.55522951       7.23274469
H        4.70855273       5.39803966       3.63850498
H        3.20404314       6.22559498       2.18280666
Ni       3.91905333       2.42780335       4.23070784
H        4.27348323       3.09201008       5.85011629
