16
Lattice="4.401978015899658 0.0 0.007495439145714045 -2.192557486059954 4.413885741091629 -2.192232131958008 0.0 0.0 8.8438138961792" Properties=species:S:1:pos:R:3 pbc="T T T"
Mg       1.81291860       3.99688270       2.11505412
Mg      -0.38977991       3.98315950       4.30756213
Mn       1.81279292       4.01714337       6.54892032
Mg      -0.38752693       4.02220361      -0.07693867
Mn       1.80714495       1.82523178      -0.07940062
Mg      -0.39136566       1.80710343       2.11078524
O       -0.38827075       3.99928101       6.53309185
O       -0.39346630       1.87425167      -0.04875141
O        1.81064678       3.99763302       4.27322314
Mn       1.80940510       1.77298012       4.30383854
O       -0.38895446       3.94347239       2.11590639
O        1.80736582       1.78863451       2.10721404
O       -0.39054290       1.80175327       4.25884920
Mn      -0.39255999       1.78474055       6.52152631
O        1.81337889       4.08070993      -0.03304225
O        1.80826268       1.72369438       6.53612113
