11
Lattice="5.776193618774414 0.0 -2.027097702026367 -2.959241347453428 5.024182524241435 -1.933769941329956 0.0 0.0 6.1323747634887695" Properties=species:S:1:pos:R:3 pbc="T T T"
Mn      -0.28815385       1.84382679       1.95047651
F       -0.27868174       3.78382784       1.94482334
F        1.63261560       2.00422428       3.13138235
Eu       1.86145677       0.51490336       5.04986063
Mn       3.33121435       3.14115230       2.98638293
F        0.83123249       1.89999558       0.37887816
F        2.80602540       4.14725876       1.42831535
F        3.75156041       2.00045775      -1.50798429
F       -0.79139072       4.13122754      -1.13870422
F        4.36718227       1.80127500       1.50344383
F        2.53441019       4.91776714      -2.02389594
