8
Lattice="3.072880983352661 0.0 0.0078580928966403 0.04208180168438252 4.982767745129792 -1.5243020057678223 0.0 0.0 5.196749210357666" Properties=species:S:1:pos:R:3 sample_seed=84000 sample_index_within_seed=0 benchmark_method=C0 dft_verified=F pbc="T T T"
Fe       0.92349171       1.26403664       3.86121706
O        0.92949473       0.01480540       0.30095484
Fe       0.94458267       3.76382031       0.49045546
Li       2.45978414       1.26786685       1.26088740
Fe       2.48071241       3.76556308       3.09873175
O        2.45010850       0.15003158       2.97811881
O        2.46933530       2.38751097      -0.45366299
O        0.91407537       2.52887280       2.20849414
8
Lattice="4.033473491668701 0.0 0.00027533783577382565 0.0016908241396211396 4.662310770522509 -0.8260810375213623 0.0 0.0 4.941286563873291" Properties=species:S:1:pos:R:3 sample_seed=84001 sample_index_within_seed=0 benchmark_method=C0 dft_verified=F pbc="T T T"
Fe       0.73488785       3.15395246      -0.22725452
Co       0.73366238       0.81313382       1.42182682
Fe       2.75233518       4.28950467       3.89446252
Fe       2.75157189       4.30480809       1.42161014
Fe       2.75112466       1.96651246       0.60456428
Fe       0.73385863       0.81613023       3.88625917
Co       2.75087779       1.96328207       3.07338581
Co       0.73507481       3.16168685       2.23909821
16
Lattice="3.860832452774048 0.0 -0.5447049736976624 -0.07391895659048857 3.8521327002747854 -0.5404843688011169 0.0 0.0 13.943925857543945" Properties=species:S:1:pos:R:3 sample_seed=84002 sample_index_within_seed=0 benchmark_method=C0 dft_verified=F pbc="T T T"
Eu       1.69094511       3.10779439       3.45790737
Eu       1.16975633       2.58131678      -0.17179481
O        2.55374210       0.05357589       9.59646722
O        1.50135426       0.95518671       2.15363148
Fe       0.13902363       1.52446493       6.44044600
Fe       3.41729954       0.93834226       1.79899159
Fe       2.87201255       0.37780719      11.85734711
O        2.81046135       2.28240849      11.43015412
Ti       2.22902710       3.65166343       7.28135450
Eu       0.65861186       2.05075036      10.11227228
O        3.39658984       2.87913168       1.61554759
O        0.91817935       0.35425408      11.97146128
O        0.24363100       3.59123920       7.16981839
O        2.21013951       1.65987850       7.12763653
O        3.13943320       0.65557216      -0.17832546
O        3.73090277       1.25690496       3.99642124
10
Lattice="3.984110116958618 0.0 -0.03215118497610092 -1.9377785584077287 3.337199503875057 -0.7618409395217896 0.0 0.0 9.939664840698242" Properties=species:S:1:pos:R:3 sample_seed=84003 sample_index_within_seed=0 benchmark_method=C0 dft_verified=F pbc="T T T"
O       -1.07961496       2.99486576       5.71314622
Eu       1.33373005       3.10154139       0.07638257
H        1.25675588       0.38297576       8.56680507
Eu      -0.63878259       2.66459607       3.18566787
N        1.81940160       2.41002515       5.85803053
O        1.30558819       0.64786915       9.51262808
O        3.30771723       0.34100262       3.21179408
O       -0.66476409       2.14223291       0.98393718
O        1.28521960       1.84087019       4.79297925
O        1.26264056       2.34534793       6.96025579
7
Lattice="5.160851001739502 0.0 -2.5787193775177 -1.299344037909379 4.994567472419041 -2.5817551612854004 0.0 0.0 6.447319984436035" Properties=species:S:1:pos:R:3 sample_seed=84004 sample_index_within_seed=0 benchmark_method=C0 dft_verified=F pbc="T T T"
Mn       0.33338819       1.11301120       1.86850529
Ge       0.64535774       4.86131632       2.50696609
S        3.31215914       1.63054706      -1.64237739
S        0.20143344       4.29018207      -1.80779857
Mn       2.26352557       3.61256371      -0.72027402
S       -0.02673425       0.43465474       4.16755150
S        1.69852224       3.09669705       1.58676577
4
Lattice="4.012381553649902 0.0 0.0008421340608038008 -0.0016816219271082134 4.013648634536917 0.0028648688457906246 0.0 0.0 9.896760940551758" Properties=species:S:1:pos:R:3 sample_seed=84005 sample_index_within_seed=0 benchmark_method=C0 dft_verified=F pbc="T T T"
Sr       3.80952175       3.53794397       6.22534110
Eu       1.80576047       1.53090064       3.10007113
Eu       1.80655580       1.53171750       9.34791478
Hg       3.81193506       3.53799326       1.27915292
10
Lattice="3.7468361854553223 0.0 1.183561086654663 1.529771385582819 4.269095390090307 1.70759916305542 0.0 0.0 6.537974834442139" Properties=species:S:1:pos:R:3 sample_seed=84006 sample_index_within_seed=0 benchmark_method=C0 dft_verified=F pbc="T T T"
Mn       2.73410864       1.97057158       2.25385213
Si       2.01119789       2.71926934       4.55066642
Mn       1.25437806       0.49615826       6.93355006
Mn       3.54592888       1.83482910       6.20514290
Mn       2.04461064       0.29950291       4.41975365
Mn       4.23222317       3.50562215       4.03760536
C        3.15860520       3.27197050       7.44486044
Mn       1.27667922       3.31335630       6.87755142
C        3.12074440       0.53791608       7.55157723
Si       0.51853590       1.09461102       2.72528598
10
Lattice="3.779381036758423 0.0 0.5503514409065247 1.8523845642306827 3.300701981724786 0.5504316091537476 0.0 0.0 13.113118171691895" Properties=species:S:1:pos:R:3 sample_seed=84007 sample_index_within_seed=0 benchmark_method=C0 dft_verified=F pbc="T T T"
Eu       1.85406554       0.98416598       6.44908381
Gd       0.46416008       0.17063985       2.75081716
O        1.49571629       0.77547024       8.90756143
O        4.84554897       2.74035596      12.34926815
O        5.54185832       3.14625366       7.63843859
O        4.30719040       2.42388396       2.87735849
O        2.17382125       1.17216291       4.27307558
O        0.81380576       0.37676457       0.41319980
Eu       5.17964355       2.93526348      10.12494776
Gd       2.80705438       1.54394677      13.12814646
