8
Lattice="3.9457967281341553 0.0 -0.00010694774391595274 -0.0007388855234356516 6.930320700357454 -3.9939188957214355 0.0 0.0 8.000227928161621" Properties=species:S:1:pos:R:3 sample_seed=84000 sample_index_within_seed=0 benchmark_method=GBSA-TCL dft_verified=F pbc="T T T"
Eu       2.31393909       2.33339803       4.40615615
Eu       2.31191863       3.57937141       0.41580883
Pb       0.33940225       6.42350833       0.73754491
Eu       2.31177946       6.41998518       3.49701760
Pt       0.33963541       1.80242321       6.77065876
Pb       0.34101670       4.72607914      -2.21115445
Pb       0.33833864       1.19495147       1.78425535
Pt       0.33903051       4.11442642       2.77547215
8
Lattice="5.8112897872924805 0.0 -0.00015543220797553658 -0.00017489893169240253 6.659198281852374 0.0013674922520294785 0.0 0.0 7.186662197113037" Properties=species:S:1:pos:R:3 sample_seed=84001 sample_index_within_seed=0 benchmark_method=GBSA-TCL dft_verified=F pbc="T T T"
Eu       4.10028819       4.46035630       3.81087219
Eu       4.09724271       1.37825590       5.60646369
Eu       1.19154185       6.00195455       5.61658966
Pb       1.19274109       2.49100384       3.81106257
Eu       1.19303140       5.99732092       2.01502602
Eu       4.09771142       1.37603057       2.01867572
Pb       4.09767081       4.88725753       0.21831187
Eu       1.19092994       2.92026416       0.21956598
16
Lattice="5.820098876953125 0.0 -0.0020872345194220543 -0.019081629796710457 5.813653625468129 -0.007109515368938446 0.0 0.0 9.121458053588867" Properties=species:S:1:pos:R:3 sample_seed=84002 sample_index_within_seed=0 benchmark_method=GBSA-TCL dft_verified=F pbc="T T T"
Eu       2.32012097       1.64414917       7.86400965
Eu       5.22338076       4.54943258       7.86023150
Pt       1.26694647       5.58973780       1.02015787
Pt       5.23385401       1.63891896       3.30218745
Pt       0.46240368       2.69249991       1.02437743
Pt       4.18550991       0.59177724       1.02732199
Pt       5.22943049       1.64223898       7.87043066
Pt       2.31599306       4.54929328       7.86043218
Pt       0.45102181       2.68370244       5.58490615
Eu       2.32339697       1.64066006       3.30810862
Pt       4.19294390       0.60208380       5.58850065
Pt       1.26526419       5.59109963       5.57919478
Eu       5.22254445       4.54465337       3.30159827
Pt       2.31123308       4.54990558       3.30041171
Pt       3.36151260       3.50675508       5.58216822
Pt       3.35942258       3.50207948       1.01898986
10
Lattice="6.051039218902588 0.0 -3.475797653198242 -1.988542187761525 5.716322826407948 -3.4787704944610596 0.0 0.0 6.985586166381836" Properties=species:S:1:pos:R:3 sample_seed=84003 sample_index_within_seed=0 benchmark_method=GBSA-TCL dft_verified=F pbc="T T T"
Gd       0.88908618       2.89128752      -0.82514714
Gd       1.88571653       0.03000657       4.40445480
Gd       3.91992155       2.89213659      -2.56738558
Gd       4.91680695       0.02862690      -0.82715131
Gd       3.91794639       2.88911781       0.93227134
Gd       1.88503465       0.02685587       0.91768281
Pb       0.89349425       2.89088070       2.66855910
C        2.90307894       1.45912023      -0.82607069
Pb       4.91331944       0.03043354       2.66756527
N       -1.11765352       4.31802646      -0.82801984
7
Lattice="4.4825053215026855 0.0 1.0518763065338135 2.116018674658334 3.948532977224027 1.055196762084961 0.0 0.0 10.075712203979492" Properties=species:S:1:pos:R:3 sample_seed=84004 sample_index_within_seed=0 benchmark_method=GBSA-TCL dft_verified=F pbc="T T T"
Li       2.38474098       0.47846210       4.41944305
Li       2.28100301       3.09718073       4.86317764
Eu       3.48259746       1.13112116       9.81846583
Li       1.68470694       2.73798512       7.42150661
Li       1.78470227       0.11477544       6.97827144
Tl       4.27420143       1.60736243       6.44839287
Eu       5.06923744       2.08427350       3.06999184
4
Lattice="4.748823165893555 0.0 2.7426528930664062 1.5827042679433134 4.4776817736731145 2.7421557903289795 0.0 0.0 5.483243465423584" Properties=species:S:1:pos:R:3 sample_seed=84005 sample_index_within_seed=0 benchmark_method=GBSA-TCL dft_verified=F pbc="T T T"
Eu       3.51759365       4.23560156       8.64394982
Hg       3.51938512       0.87800145       3.16206615
Eu       5.10131042       1.99712845       5.90310772
Hg       1.93436734       3.11658599       5.90091678
10
Lattice="3.4102351665496826 0.0 -0.002357626799494028 -1.7051664009298118 5.834566586741229 -0.3485877811908722 0.0 0.0 8.208044052124023" Properties=species:S:1:pos:R:3 sample_seed=84006 sample_index_within_seed=0 benchmark_method=GBSA-TCL dft_verified=F pbc="T T T"
Sc       0.42517515       2.70933759       7.90746544
Zn       2.13111685       2.79694608       5.38272400
Sc       2.13199234       3.62093333       2.36918720
Zn      -1.27915471       4.89395976       7.16628081
C        0.42584228       5.25928510       2.87722797
Sc       2.12753124       0.52439587       1.35224782
Zn       0.42401175       4.48332208       4.73863447
Zn       2.13044171       0.70600690       6.61975683
C        0.42614356       2.01637080       1.80264351
Sc       0.42590170       0.86892721       3.87621818
10
Lattice="3.7645044326782227 0.0 -0.0008344166562892497 0.002251858063385477 3.766062778535455 0.00041017544572241604 0.0 0.0 19.364418029785156" Properties=species:S:1:pos:R:3 sample_seed=84007 sample_index_within_seed=0 benchmark_method=GBSA-TCL dft_verified=F pbc="T T T"
Eu       3.16823494       3.16226610       6.45486488
Mg       1.28353663       1.27789337       4.19804172
Eu       3.16742863       3.16133206       1.94872077
Eu       3.16831316       3.16286837      13.90525106
Au       1.28410445       1.27961700      15.75225355
Au       1.28448675       1.27804275       0.21484117
Eu       3.16664940       3.16179089      17.63362422
Eu       3.16735728       3.16208540      10.14649140
Au       1.28511255       1.27973069       8.18690912
Au       1.28399495       1.27961756      12.03945095
