8
Lattice="4.450401782989502 0.0 0.01197228766977787 -2.16913185156723 5.612250071829446 0.0053828079253435135 0.0 0.0 6.86595344543457" Properties=species:S:1:pos:R:3 sample_seed=84000 sample_index_within_seed=0 benchmark_method=TCL dft_verified=F pbc="T T T"
Eu       2.40369423       1.83200709       4.82358501
Eu       2.42732179       3.76924727       1.38131730
Zn       2.39130697       0.53873077       1.37022159
Ge       0.17353896       1.45580602       2.72773360
Ge       0.17978441       1.44260919       0.03835502
Zn       2.44181195       5.05084262       4.82456896
Ge       0.20747178       4.13118440       3.49085500
Ge       0.20271916       4.13989253       6.13143809
8
Lattice="4.674074649810791 0.0 -2.149600028991699 -2.7736886223739816 4.253273347825031 -0.8451740741729736 0.0 0.0 5.151638031005859" Properties=species:S:1:pos:R:3 sample_seed=84001 sample_index_within_seed=0 benchmark_method=TCL dft_verified=F pbc="T T T"
Fe      -0.07981564       3.54340490       1.27828306
Fe       4.33686521       0.35238849      -0.45238411
N        0.05342827       4.07010355      -0.45175228
Eu       1.30889458       1.42255242      -0.87662812
N        0.49365793       1.94584510       1.92023429
Eu       2.95117943       2.48436209       1.70007358
N        3.78516701       0.45625108       2.96852521
N       -1.87336476       3.44734154       1.51931016
16
Lattice="4.912473678588867 0.0 -0.3061021864414215 -0.005379807529540997 4.877006901400246 -0.3629879057407379 0.0 0.0 6.63554048538208" Properties=species:S:1:pos:R:3 sample_seed=84002 sample_index_within_seed=0 benchmark_method=TCL dft_verified=F pbc="T T T"
Mn       2.40467552       1.28755394       4.07491029
Mn       4.31178977       1.45840847      -0.14206028
Mn       1.60479048       4.72859629       1.90244947
Mn       4.10058942       0.48909595       2.12805455
Mn       3.38621766       2.95800628       1.92846443
P        3.37314289       2.94401904       5.22790816
Mn       1.75882873       2.13891339      -0.25210038
Mn       0.95240017       2.25640495       2.05961376
Mn       0.16521798       3.93402067       0.05197348
Mn       2.55176258       4.64941346      -0.31758442
Mn       1.64547020       3.80977008       4.14741173
C        2.58940071       1.29430280       1.33320664
Mn       0.00465769       2.03245767       4.32697848
C        0.90781011       0.54602022       5.56874911
C        0.14444717       3.75193046       2.82928514
Mn       4.19112558       4.57645087       4.10166785
10
Lattice="3.9432380199432373 0.0 0.014226105064153671 0.021057386418869013 3.933360478081379 0.01677294448018074 0.0 0.0 18.000686645507812" Properties=species:S:1:pos:R:3 sample_seed=84003 sample_index_within_seed=0 benchmark_method=TCL dft_verified=F pbc="T T T"
Gd       3.39839793       3.41044830      17.10198510
Gd       3.38872722       3.41432089       6.88035893
Gd       1.40783244       1.44457960      14.59710206
Co       1.40773996       1.44967366      11.96814603
La       3.39158869       3.41430495      11.90312966
Gd       1.40817588       1.44772974       9.19143104
Co       1.41449571       1.44342003       0.86997134
I        1.41052784       1.44616411       4.77082018
Co       3.39104845       1.44765542       0.83381372
Dy       3.39622562       3.41749436       2.58455446
7
Lattice="4.075175762176514 0.0 -0.0036684460937976837 -2.0471023962422525 4.471332045123699 -2.208789348602295 0.0 0.0 7.0576982498168945" Properties=species:S:1:pos:R:3 sample_seed=84004 sample_index_within_seed=0 benchmark_method=TCL dft_verified=F pbc="T T T"
Al      -0.79204111       4.30549805       2.80514470
Al      -0.78571618       2.99456366       0.36510337
Fe       1.25377064       1.88067862      -0.47065798
Gd       1.25099888       4.25339279      -1.85886126
Al       3.28717380       1.68128276       4.97647283
Fe       1.24983217       4.10582821       1.19977013
Gd       1.25120211       1.72934143       2.59681816
4
Lattice="4.731461048126221 0.0 -2.706862688064575 -1.4540732615428171 4.502572785970564 -2.697847366333008 0.0 0.0 5.5462541580200195" Properties=species:S:1:pos:R:3 sample_seed=84005 sample_index_within_seed=0 benchmark_method=TCL dft_verified=F pbc="T T T"
Eu       0.36123579       0.74684629       0.31539616
Hg       3.53637719       1.87423050       0.38370464
Eu       1.98754159       2.99922799      -2.37919822
Hg       0.45097155       4.12566047       0.39209792
10
Lattice="3.826911449432373 0.0 -0.005111929029226303 -0.0019775109790035397 5.34318029049472 -0.04632088914513588 0.0 0.0 5.339346885681152" Properties=species:S:1:pos:R:3 sample_seed=84006 sample_index_within_seed=0 benchmark_method=TCL dft_verified=F pbc="T T T"
Mn       3.16763914       0.91033656       3.10187060
Mn       3.17306625       3.62678383       0.39419575
Mn       1.25767289       4.85487302       1.80638164
Mn       1.25616654       5.09145117       4.55158136
C        1.25977433       3.62517742       0.38771893
V        1.26133089       2.09763353       1.60264743
Ge       3.17503414       3.59888799       3.06242014
Mn       1.25913554       2.33888217       4.35285884
C        1.25765008       0.91070663       3.12083405
Si       3.17224390       0.91877154       0.40127549
10
Lattice="3.193437337875366 0.0 0.8297295570373535 1.3888804178643845 5.29672521600872 1.2350815534591675 0.0 0.0 6.552583694458008" Properties=species:S:1:pos:R:3 sample_seed=84007 sample_index_within_seed=0 benchmark_method=TCL dft_verified=F pbc="T T T"
Eu       2.77229111       0.26794705       6.33116571
C        2.19907990       1.33165257       1.97276424
Eu       1.86531330       4.71612011       3.27621274
Mn       1.71790465       1.72148725       3.82564204
Mn       0.72147359       2.49548853       1.12115851
C        2.43711604       3.64954791       7.63689543
Mn       2.91522802       3.27715255       5.79928815
C        1.24019070       2.30761159       5.67188064
C        3.01466550       5.15850731       5.41204287
C        3.39799127       2.69435232       3.93633116
