4
Lattice="4.2184188935218385 0.0010629397703157692 -1.5070988757946229 -0.0014094406882562526 4.169095536462004 -0.0009925640170010822 0.5898542690304025 0.0017727468124648035 8.30906734649069" Properties=species:S:1:pos:R:3:forces:R:3 structure_index=0 total_energy=-35.70859146118164 stress="-0.02532016485929489 -0.00015616354357916862 -0.0040182992815971375 -0.0001562195539008826 -0.010066471993923187 -0.00039275852032005787 -0.004018331412225962 -0.00039291041321121156 -0.0369725376367569" pbc="T T T"
Eu       3.14303180       1.95943674       3.86814576       0.00300121      -0.00015308       0.00913560
Au       1.29270086       4.04337857       5.34707974       0.00451434       0.00092604       0.01389549
Eu       1.50878721       1.95849690      -0.70922577      -0.01394625      -0.00045177      -0.03449202
Eu       4.44625839       4.04434324       0.86469902       0.00643071      -0.00032119       0.01146096
