8
Lattice="3.7730927425644625 0.00010091199728821907 -0.9656138326209949 -0.24919423680473454 3.77248332556206 -0.9733219708737073 -0.07409935154986233 -0.07303141161319275 7.565008326835531" Properties=species:S:1:pos:R:3:forces:R:3 structure_index=0 total_energy=-58.34586715698242 stress="0.033324237912893295 0.0007804142660461366 -0.0018534876871854067 0.0007801228202879429 0.015383454971015453 0.0031391477677971125 -0.001853008521720767 0.0031383302994072437 0.02693406119942665" pbc="T T T"
Mn       0.85395825       1.49756770       2.45772442      -0.00035030      -0.00076021      -0.00028434
Ni       2.61567683       3.38415790       1.48808688       0.00036831      -0.00151573       0.00065918
Mn       1.69667117       2.40281511       5.75191061      -0.00513615      -0.00539796      -0.02452305
Ni       3.16205530       1.95064098       3.62169012       0.00985486       0.01077149       0.04441221
Mn      -0.06332088       0.51858773       6.72858529       0.00611884       0.00696805       0.02495724
Ni       2.31897370       1.04427598       0.32873187      -0.01146823      -0.01045115      -0.04687019
Pt       0.30712145       2.93000714       0.32197235       0.00138884       0.00251962       0.00584096
Pt       1.40038976       0.06470884       4.59327733      -0.00077616      -0.00213414      -0.00419205
