12
Lattice="4.1556243896484375 0.0 0.9499669075012207 1.784227384096709 7.302818057346351 1.7607282400131226 0.0 0.0 9.55308723449707" Properties=species:S:1:pos:R:3 pbc="T T T"
Eu       2.81525175       5.79730703       4.97451575
P        2.01810973       1.41507033       8.44885469
Eu       1.35436928       2.27913327       1.78864102
Eu       5.64788442       6.52615197      11.68257493
Eu       4.02189050       3.72488729       9.24966274
Eu       0.46059106       0.92120834       5.68965026
P        3.16766943       0.53522692       3.42572210
P        4.80453892       3.64243426       5.83197957
P        3.39195322       4.48757097       2.42796340
P        2.13808423       5.45007491       7.92977036
Pt       2.97129811       2.77906422       4.27134918
Pt       2.39383430       3.27769782       6.81972956
