12
Lattice="4.704093933105469 0.0 -0.7710137963294983 -1.0121377569624885 4.617621203455418 -0.7952316403388977 0.0 0.0 4.7721405029296875" Properties=species:S:1:pos:R:3 pbc="T T T"
Mn      -0.43713351       2.23987181      -0.19955788
Fe       0.88461866       2.92684470       2.32266497
Fe       3.17033821       1.53342670       1.48344600
C        2.56567984       2.57099161       3.02090895
Mn       3.19815308       4.25831561       2.31415743
C        3.65908358       0.66204419      -0.08694336
Mn       0.70585060       0.27051313       1.43849464
Mn       1.96140053       3.60763822      -0.16715606
C        1.42517865       4.50118857       1.39174433
Fe       1.90770390       0.88161610       3.73303401
C        0.18736793       1.26814837       2.97008847
C        0.21944699       3.89924232       3.85033702
