16
Lattice="5.268852596053952 -0.022568519539798236 -0.010698158442828828 -1.6808135351509244 4.98859385116164 -0.04850749800851664 -0.01306902503490188 -0.0520794959985218 6.128232105722301" Properties=species:S:1:pos:R:3:forces:R:3 structure_index=0 total_energy=-110.74836730957031 stress="-0.02964019402861595 0.0052826362662017345 -0.00014797106268815696 0.005282439291477203 -0.026185596361756325 0.000774072133935988 -0.00015031651128083467 0.0007703981245867908 -0.02260865643620491" pbc="T T T"
Mn       0.24916089       4.21672462       2.53383215       0.01086736       0.00055480      -0.00366681
O        2.06050319       3.03796982       2.42051731      -0.00141680       0.01969875      -0.01385674
Mn       2.88547556       4.16192136       0.95683779       0.00491019      -0.01152642       0.01180414
O        0.21593886       0.58256740       2.70206377       0.02512550       0.00606465       0.00489733
O        2.92309362       0.32559693       0.94743909       0.02703127      -0.00805041       0.02367932
Mn       1.06008191       1.70064516       4.13167790      -0.00575674      -0.00534301      -0.00615139
Li       1.03946750       1.71208851       0.99058388      -0.01303215       0.02286459      -0.00080035
Li       2.87962827       4.20365861       4.09989826      -0.01259979      -0.00304290      -0.00059315
Li       3.67109488       1.63547196       5.61999050      -0.00135124      -0.00852082       0.00575145
Mn       0.23079409       4.14423129       5.60135305      -0.00841473      -0.00309870       0.00244077
Mn       3.70397131       1.71110976       2.55380889       0.00225292      -0.00404085       0.00180496
O       -0.52721813       2.91515687       4.14556948       0.00550458      -0.01353521      -0.01443923
O       -0.78304329       3.01054964       1.04326316       0.00510702       0.02033753      -0.01939200
O        2.69933490       0.58588964       4.08628436      -0.02292643      -0.00611076       0.01291574
O        1.80287355       2.92813777       5.50628336      -0.01260546      -0.00424152      -0.00553107
O        0.25244267       0.25043982       5.75861712      -0.00269560      -0.00200981       0.00113723
