20
Lattice="3.267441749572754 0.0 -0.00446275481954217 -1.635808541384059 6.776976039420351 0.1756715029478073 0.0 0.0 11.00256633758545" Properties=species:S:1:pos:R:3 pbc="T T T"
Eu       0.39624144       2.94489348       6.80128156
Hf       2.02805569       4.91396659       3.78328461
Mn       0.40024889       4.31284621       9.58747426
Mn      -1.23901491       6.17256285       1.01993442
O        2.03280364       4.33113406      10.97106836
Eu       0.39510146       2.65126050       1.28567968
O        0.39390089       4.86962887       2.46262115
O        2.02960310       2.76049240       3.04142219
Eu      -1.23729673       6.27513338       7.05513137
O        0.39487879       6.02224570       4.89445214
Mn       2.02940072       1.03434558       3.94204818
O        0.39486447       0.32934829       2.79763911
Mn       2.03101774       1.18687908       9.44564163
O        0.39880518       6.11821850       9.09620944
O        2.03223039       0.79586077       0.34810304
O        2.03317253       4.16606252       8.25550681
O        2.03183204       1.30498237       7.48128963
O        2.02851708       4.03990459       5.57671325
O        0.39950845       2.37221669       9.66173476
O        0.39619758       1.39860831       5.08037081
