12
Lattice="3.536048412322998 0.0 0.0005478342063724995 -0.0006452737521355293 4.772450880296576 -1.5931416749954224 0.0 0.0 7.96440315246582" Properties=species:S:1:pos:R:3 pbc="T T T"
Fe       0.41849083       0.44229265       6.69824903
Fe       2.18682956       2.84875209       1.86237601
Ni       0.41934991       3.62330932       0.30927127
Fe       0.41789766       4.42968428       2.71148330
Fe       0.41948125       1.21396182       1.10025358
Ni       2.18695277       4.40790070      -1.27515625
Ni       2.18752114       2.04521746      -0.50767658
Fe       0.41765256       2.03522576       3.52639304
Ni       2.18584198       3.61721650       4.32186002
Ni       0.41823048       2.82626922       5.89274680
Ni       2.18696031       0.44441996       2.68714638
Ni       2.18589070       1.23933727       5.09594458
