6
Lattice="4.117345333099365 0.0 2.3744776248931885 1.37263817158373 3.883342350465573 2.379059314727783 0.0 0.0 4.7548980712890625" Properties=species:S:1:pos:R:3 pbc="T T T"
Fe       1.95572695       3.88296946       3.71707148
Fe       1.26799459       1.93881894       2.52638277
Fe       1.95481279       3.88234427       6.09171468
Pt       4.01403099       2.42757690       7.28040315
Rh       2.64116712       1.45526074       4.90135803
Fe       4.01151272       3.88259703       4.90311463
