19
Lattice="6.7776031494140625 0.0 -3.213864326477051 -4.057577385681157 4.467014813148344 -0.5699982643127441 0.0 0.0 5.970738410949707" Properties=species:S:1:pos:R:3 pbc="T T T"
Fe       0.85504784       3.58895138       1.25674720
Mn      -0.95549191       4.18775476      -0.93016912
Mn      -1.50071123       3.20841012       2.66417914
C        3.70883565       1.72209564      -0.40116297
Mn       2.89214113       3.51600820       0.03737230
Mn       1.00705907       3.08709750       3.48953491
Mn       5.45689499       0.74220664      -0.81786335
Mn       1.49894611       0.87924567       2.45786269
Mn       3.95150768       1.43035463       1.45200394
C        1.59746668       0.12113636       4.36661223
Mn      -3.57732051       4.27167270      -0.33672976
Mn      -0.77022509       2.16346401       0.34334589
Mn       3.60533771       2.10696035      -2.25760529
C       -0.02393675       2.08835233       2.18200739
C        2.44561512       2.55461739       2.08693016
C       -2.02793303       3.73240575       0.77530394
Mn       1.68490716       1.68127705      -0.56997631
C        5.01662091       0.55902392       3.09105321
C        0.91563611       3.48278706      -0.60187976
