10
Lattice="5.6807379722595215 0.0 -0.07192035019397736 3.94085979446936 6.0345724595995405 -1.6181505918502808 0.0 0.0 4.707074165344238" Properties=species:S:1:pos:R:3 pbc="T T T"
O        8.63178078       5.91443289       0.14292117
Ge       5.00114599       0.79260582       3.31580117
Ge       6.35296735       3.53652003       1.84216054
O        3.22357275       1.17660257       3.72428989
O        1.88865533       2.56313987       1.08150801
Nd       3.39986490       3.58875903      -0.41077401
O        7.24025094       4.46752240       3.05046905
O        5.41807221       4.46328671       0.69055447
O        5.12982267       2.62350209       2.72949604
Nd       2.50487135       0.31477557       1.25905217
