5
Lattice="6.012655819101128 0.013216571932105665 -0.041543077894392356 -0.046232155817414786 6.012617139621015 -0.051807196308195656 0.011813307434328742 0.014958772546335215 6.012893082839257" Properties=species:S:1:pos:R:3:forces:R:3 structure_index=0 total_energy=-33.1500129699707 stress="-0.0033477465622127056 -0.019058983772993088 -0.01691220887005329 -0.019059069454669952 -0.003232137067243457 -0.021353652700781822 -0.016912268474698067 -0.0213535875082016 -0.002693144604563713" pbc="T T T"
Eu       5.61785306       0.56540028       2.67028535       0.00015576      -0.00029657       0.00271970
Eu       5.60083984       3.57781829       5.65193773       0.00008550      -0.00142139      -0.00046996
Zn       5.62586157       0.57071515       5.67741508      -0.00310887       0.00199243      -0.00213199
Na       2.58834822       3.56526458       2.66596939       0.00007653      -0.00014920      -0.00008635
Eu       2.61837753       0.56584877       5.69756087       0.00279106      -0.00012525      -0.00003140
