16
Lattice="4.90593147277832 0.0 0.01384105533361435 0.012774976805274148 4.984958015086303 -0.007106921169906855 0.0 0.0 20.688196182250977" Properties=species:S:1:pos:R:3 pbc="T T T"
La       0.57517994       1.10323230      17.72113740
Pb       0.58844084       3.59356590      15.33307988
La       0.57821522       1.09959576      13.09972019
Sn       0.58196222       1.09753423       7.65881681
La       3.03773199       3.60137796      17.75242921
Sn       3.02627042       1.10248079      15.39139909
La       0.57904121       3.58259094       9.87930129
La       3.03140653       1.09282559       9.85948459
Ba       3.03961413       3.59150919       2.00334513
Mn       0.57142399       1.11241671       0.49399663
Sn       3.04080038       3.58531410       7.52127768
Sn       0.58213423       1.09844284       3.15057488
Sn       0.58292113       3.59488425      20.08913943
Sn       3.02906805       3.58668207      12.33576917
Sn       3.03125235       1.10180906      20.09992133
La       3.03803286       1.08558936       5.44859411
