16
Lattice="4.9692706259021815 -0.0063566506211379286 0.008018823941981038 0.006479474585520704 5.049895177335863 -0.0036245013483066227 -0.0257371822253878 0.015117230048856841 21.108206572461043" Properties=species:S:1:pos:R:3:forces:R:3 structure_index=0 total_energy=-80.42845153808594 stress="-0.0099948700517416 3.0267652618931606e-05 3.974633727921173e-05 3.0275397875811905e-05 -0.00956949032843113 5.008800144423731e-05 3.994436701759696e-05 4.9943773774430156e-05 -0.011887334287166595" pbc="T T T"
La       0.56062490       1.13129302      18.08984178       0.00084152      -0.00155118       0.00403813
Pb       0.57077685       3.65132004      15.67837215      -0.00303468       0.00019082       0.02007662
La       0.56512618       1.12229955      13.52554960       0.00127106       0.00109508      -0.03560544
Sn       0.57684751       1.11347766       7.80115532      -0.00180029      -0.00057284       0.01525499
La       3.04958585       3.65205888      18.04875905       0.00034761      -0.00013418      -0.03217009
Sn       3.04796703       1.12511260      15.73564644       0.00045291      -0.00055913       0.01796584
La       0.57324665       3.64014556      10.09321097       0.00025453      -0.00139793      -0.02599137
La       3.05613665       1.10981807      10.02393234       0.00062340       0.00093865      -0.00529110
Ba       3.06993855       3.63759346       2.12096817       0.00060232       0.00015508      -0.01420495
Mn       0.58138393       1.11891350       0.52841733      -0.00035409       0.00120975       0.00053045
Sn       3.06309959       3.63145382       7.76372470      -0.00130876       0.00329207      -0.01330894
Sn       0.58355805       1.11515825       3.22315433      -0.00234623       0.00137556       0.01475255
Sn       0.56228653       3.65942793      20.42151395      -0.00006480      -0.00537830       0.01305578
Sn       3.05185089       3.63827131      12.36163795       0.00430358      -0.00061646      -0.01813360
Sn       3.04146675       1.12748948      20.41965580       0.00290616       0.00018412       0.01602323
La       3.06629511       1.10491785       5.60252902      -0.00269425       0.00176887       0.04300791
