14
Lattice="4.9273529052734375 0.0 -0.9538182616233826 -1.7305665498330998 4.79659797988534 -2.380343198776245 0.0 0.0 6.6423020362854" Properties=species:S:1:pos:R:3 pbc="T T T"
Ni       2.61533699       0.90624387      -0.63236052
Fe      -0.43677459       3.66770343       3.17457717
Fe       3.50898578       2.23147905       4.11988825
Fe       2.38825167       4.31726599      -1.64519974
Ni      -0.93846662       2.95881786       0.78768570
Fe       4.60709494       0.17750593       3.13955616
Ni       1.52107590       2.94765463       0.28124412
Fe       0.69129200       1.58629861       2.18275296
Ni       1.03546090       2.24325196       4.55600803
Ni       3.13691686       1.59998048       1.71576281
Ni       2.00914915       3.62846058       2.67099250
Ni       2.15868220       0.20008855       3.62330907
Ni       0.16133650       0.88953854      -0.17223414
Ni      -0.05348592       4.30562302      -1.10011999
