10
Lattice="4.846008556802603 0.01730658478269501 0.018948480952908287 -0.0034916485810169737 6.855077811963948 -2.6223389728418636 -0.040363374217705 -0.15622554551520487 7.571806481371354" Properties=species:S:1:pos:R:3:forces:R:3 structure_index=0 total_energy=-52.82755661010742 stress="0.005565573927015066 6.182606739457697e-05 -0.00014078611275181174 6.210709398146719e-05 0.006008323282003403 0.0025539961643517017 -0.0001411759585607797 0.0025533074513077736 0.004209066275507212" pbc="T T T"
Ti       3.64122862       5.22618432       1.12583072      -0.00039287      -0.01055080      -0.00524467
Ti       3.61837104       6.80936719       3.81830432      -0.00006137      -0.00675470       0.00078429
Bi       1.20760537       0.69107951       2.70970137       0.00352439       0.01310426       0.03841132
Bi       1.18262856       4.74839872       5.15799979       0.00381495       0.02399254       0.03081694
Br       3.65619473       2.73709239      -0.03204666      -0.00165318       0.00380117      -0.03584000
S        1.22107704       5.05462799       0.85649401      -0.00099598      -0.00392765      -0.02515446
S        1.20000211       0.20312607       6.56585547      -0.00059438      -0.00554407       0.01396835
S        3.62692250       0.75848769       4.15580752       0.00144338      -0.01111984       0.01147810
S        3.63203403       4.46552394       3.38695712      -0.00021457      -0.00140396      -0.02230303
S        3.66155525       6.12332679      -1.33974532      -0.00487047      -0.00159718      -0.00691671
