9
Lattice="3.798170566558838 0.0 0.0002733113942667842 -0.0007562452719501597 8.88529488206283 -5.146646022796631 0.0 0.0 10.280511856079102" Properties=species:S:1:pos:R:3 pbc="T T T"
Eu       1.86380198       0.54485790       6.42519184
Mg       1.86243503       3.86455701       7.90650423
Eu       3.76226159       1.25159103      -0.60801318
Eu       1.86359608       0.90654295       2.76827578
Eu       1.86308965       4.24470048       1.25299012
Eu       3.76262025       3.64736553       4.75589210
Eu       1.86374514       6.79972954       5.77347748
Eu       3.76364189       6.69092063      -0.98615280
Mg       3.76316713       6.82417557       2.77358950
