11
Lattice="4.379362966002659 -0.06269110433571272 -0.02007157889935784 -2.089525467955043 6.7470802865486394 -2.697004460601637 0.02439379413066603 -0.0931043041117055 10.727630132452626" Properties=species:S:1:pos:R:3:forces:R:3 structure_index=0 total_energy=-24.825700759887695 stress="0.005483072716742754 0.0020874489564448595 -9.280236554332078e-06 0.002087340224534273 0.0020440418738871813 0.0020081112161278725 -9.50674348132452e-06 0.0020082269329577684 -0.011219065636396408" pbc="T T T"
Hg      -0.77742057       3.79937827       4.75037618       0.00130358       0.00077982       0.01303987
Ag       1.36182570       1.95797547       1.95187694       0.00125867       0.04814725      -0.00403297
Cl       1.42654118       6.12369700      -0.62967417      -0.00169931      -0.01702776      -0.02119942
Hg       1.42344666       6.27576622       1.98578477       0.00104180       0.03496871      -0.00970858
Ag      -0.77214934       6.06575783      -2.08569400       0.00038167       0.01040807       0.02985505
Cl       1.42206266       6.04818599       4.59437111       0.00172543      -0.01689468      -0.00612038
Ag       3.53636901       1.51096748       8.64903795       0.00210604      -0.03139940       0.03418018
Cl      -0.77317520       3.81197354       7.21790723      -0.00332378       0.00044844      -0.01468414
Cl      -0.80004316       3.84863674       2.26440559      -0.00331612      -0.03009669      -0.00089741
Cl       1.36820633       1.73133448       4.52692489      -0.00073347       0.00928019      -0.00427653
Cl       1.33490398       1.69196030      -0.59883771       0.00125549      -0.00861399      -0.01615563
