11
Lattice="3.168644428253174 0.0 -0.6671559810638428 -0.2534916446879807 5.099317424474526 -1.2140638828277588 0.0 0.0 7.794508934020996" Properties=species:S:1:pos:R:3 pbc="T T T"
Fe       2.79480021       1.91674990       1.79196355
Fe       0.58147879       1.11413206       6.97819974
Fe       0.82397339       4.11734354       0.29184687
H        1.73836064       0.83273303       4.59925827
H        2.81575467       4.47840066       1.89032876
O       -0.10716196       3.40271926       3.67041132
O        1.90576414       1.38855891       5.38474706
Fe       1.74776282       3.49312116       4.62866762
O        0.41725784       4.22357307       6.19648934
O        0.95771378       2.13159105       0.83877922
O        2.62956658       4.97489232       0.99446954
