10
Lattice="3.876558303833008 0.0 -0.8868628740310669 -0.7426051843993245 8.559930551162644 -3.244913101196289 0.0 0.0 8.931039810180664" Properties=species:S:1:pos:R:3 pbc="T T T"
Eu       1.41776074       3.09071020       5.46567067
Eu       0.15758750       4.36754973      -0.07162017
Eu       2.61378268       1.97687857       1.85313974
Eu       2.88110984       5.55085395       2.92370866
Eu       3.81498702       0.60724539       7.00048666
B        2.04366799       2.34393616      -0.76513589
Eu       0.40440156       8.05191131       1.03861911
O        2.16970425       0.88934522      -0.20936127
Gd       1.61853840       7.04925109      -2.61516884
B        3.20954721       1.30532082       4.38214240
