16
Lattice="4.390744209289551 0.0 -2.0657787322998047 -0.9841993446514511 5.414188268214285 -2.6536848545074463 0.0 0.0 7.5428876876831055" Properties=species:S:1:pos:R:3 pbc="T T T"
Mn       2.04772953       0.66268342      -0.27356048
Mn       3.40906470       1.48915497      -2.36863773
Mn       1.28703194       4.51489469       2.74732834
Mn      -0.89204416       5.37805886      -1.40759319
Mn       0.85660439       3.58253810      -0.02295429
Mn       1.91626533       0.55705518       3.25938464
Mn       2.27094721       2.52815827       1.82467635
Mn      -0.41581790       2.56780926       2.00884414
Mn       3.91329402       0.66123162       1.61944853
C       -0.29474067       4.53077690       1.46281057
C        0.70945258       1.78131891       0.60081857
C        0.95343859       2.35606679       3.39900939
Mn       3.24977371       4.88906492       1.24356248
Mn       0.27077729       3.35154141       4.94319998
C        1.07254233       4.95258763      -1.33512025
C        3.59546595       1.64894037       3.27451615
