6
Lattice="3.958989381790161 0.0 0.0006548911915160716 0.00186878045658141 4.279163906206634 -2.470921039581299 0.0 0.0 4.939999580383301" Properties=species:S:1:pos:R:3 pbc="T T T"
Gd       1.99836788       0.35846583       3.44727726
Co       1.99849103       1.78494732       0.97627374
Co       0.01802796       0.36268423       0.97541467
Co       0.02008112       2.49403167       2.20666873
Co       0.01966389       2.49588072      -0.25352096
Ni       1.99955753       3.21154834      -1.49492691
