17
Lattice="5.3620429039001465 0.0 -1.8216067552566528 -1.415820638919527 5.154002391952692 -1.523508071899414 0.0 0.0 8.569655418395996" Properties=species:S:1:pos:R:3 pbc="T T T"
Mn       3.96094404       3.57142331       4.38247519
O        2.72367431       2.28998929      -0.69563695
Mn       1.42449049       1.06813719       0.36720745
Li       1.34014117       3.53032453      -1.21799419
Mn       3.17893198       0.82422126       6.53263018
F       -1.03645441       4.50515972       2.92303015
F        3.66655641       4.87348628      -2.31311169
Mn       3.88056772       0.18215467       3.28394993
Mn       0.78147424       3.27991703       3.97262122
F        0.74810165       2.41714977       1.96357069
F        4.53996104       2.09625036       2.83925159
F        0.98875213       4.86507262       0.30893444
Mn       4.38479370       3.47269796      -0.71896605
O        2.32863923       4.60554213       3.59035986
O        0.41262055       4.54546315       5.92392190
F        2.42235363       1.99960998       4.73295333
F       -0.26893687       2.30644152      -0.71621301
