16
Lattice="5.4105377197265625 0.0 -1.5030739307403564 -1.041110784123533 5.4455921618760925 0.6558701395988464 0.0 0.0 7.209444522857666" Properties=species:S:1:pos:R:3 pbc="T T T"
O        1.04069048       3.72032925       2.88492141
Zr       3.03635110       0.83382994      -0.65206246
Zr       1.24524684       3.11781796       0.66309459
Zr       4.47700541       2.75708012       1.40103438
Zr       2.79584950       5.14807100       2.69611697
Zr       3.78458961       4.03789112       5.73964197
O        3.29590969       0.23986045       4.32506818
Zr       0.40279681       4.46632358       5.03479992
N        3.07059381       4.47249065       0.67941108
N        3.94346481       3.46270124       3.51882173
Zr       2.28745531       2.06969470       3.59403011
O        1.89051967       2.72661609       5.70614379
N        4.71001530       2.26295230      -0.70036783
O        0.32614829       0.89580501       3.62065032
N        0.25323129       4.94873867       7.05712443
N        2.68952949       1.52869781       1.46358292
