10
Lattice="2.815516233444214 0.0 -0.013753239996731281 0.033514462144569886 5.754491486639904 -3.0251944065093994 0.0 0.0 6.53571891784668" Properties=species:S:1:pos:R:3 pbc="T T T"
Mn       0.24646732       3.77859118       4.21417508
Mn       0.23925049       1.14255643       4.30033688
Mn       1.65631714       5.00694063       2.22228004
Mn       1.65329363       2.47279324      -0.75076960
Mn       0.23989523       3.66578752       0.74036743
C        1.66403516       5.11183930      -2.43371241
Mn       1.66903782       5.39292769      -0.43632492
C        0.23091855       1.07478562       2.40922824
Mn       1.64847641       2.38240015       2.32305194
Mn       0.22435282       0.77170855       0.43038637
