10
Lattice="5.332968235015869 0.0 -0.0931188091635704 -2.6784096284430916 3.916028216750204 -2.4397575855255127 0.0 0.0 5.644446849822998" Properties=species:S:1:pos:R:3 pbc="T T T"
Fe       3.41730401       1.15549622       0.98388736
Fe       0.76220195       1.16424593       3.86125282
W       -1.90811933       3.46560655      -1.03090999
Mn       0.77205987       3.37786674       1.62587858
O        1.51453197       1.39128574       1.72568330
O       -0.28813659       3.03477854       3.70190043
O        5.10977721       0.20238737      -0.20354819
O       -1.11446912       3.06117820       0.74475630
O        2.65251319       1.70158508      -1.11661943
O        4.58917050       0.27592854       2.46513132
