18
Lattice="5.673028186774918 0.06849428848181796 1.9782371854708338 0.8822891638361199 6.373069103659341 -2.7502969155538675 -0.10706415744496103 -0.0973657362941448 9.425919813193639" Properties=species:S:1:pos:R:3:forces:R:3 structure_index=0 total_energy=-90.6707992553711 stress="-0.0061020199209451675 -0.0006874950486235321 0.000351614726241678 -0.0006876030238345265 -0.012619953602552414 0.002034776844084263 0.00035235134419053793 0.002035492332652211 -0.007119990885257721" pbc="T T T"
K        5.06567147       0.15145594       8.51192105       0.00343860       0.03084595      -0.01981222
K        3.90383132       0.89418445       2.68851655      -0.00594863      -0.03150086       0.02009276
O        1.18227775       5.24305713       6.60195335      -0.00642997      -0.00260568      -0.00023759
O        0.58001369       1.99177949       8.48658702      -0.00923859       0.00024566      -0.00445053
K        4.85983903       3.66003746       8.93418091      -0.00879227       0.00070357      -0.00410725
O        5.55840591       4.26920839       4.17075825       0.03174584       0.01941635       0.00855003
K        2.61281588       2.58317198       6.45102173      -0.01000146      -0.01010696      -0.00315838
O        3.95154903       5.25008734       1.58464568       0.00218336      -0.00823759       0.00310534
K        1.64520802       4.76444031       0.04816003      -0.01959734       0.01341193      -0.00683787
Sn       3.71881891       4.77617194       3.43982013      -0.00132775      -0.01772292       0.01484327
O        3.52357310       5.29837349       7.38282170       0.00210953       0.00251365       0.00133105
O        5.38965568       2.16344443       6.68745492       0.00505884       0.00574605       0.00221196
Sn       0.67897825       2.57727821       3.10872162       0.00669387       0.01511884      -0.01039001
O        0.89784033       1.05267449       1.87332065      -0.00887200      -0.00005212       0.00545508
Sn       1.57672095       0.43980663       9.31858916      -0.00411224      -0.00110020      -0.00425426
O        2.89614242       1.97297055       9.33768372       0.00015467      -0.00125515       0.00263490
O        3.08685967       6.29472378       4.53185712      -0.00223811       0.00269084      -0.01099512
O        2.56306019       3.12893909       3.67720627       0.02517381      -0.01811149       0.00601884
