6
Lattice="3.608656652096513 -0.0010459384412920907 2.08550840513574 1.2028783831627694 3.4026150264079034 2.0853961012844997 -0.001798536632699695 -0.0010951849345238111 4.167870706759321" Properties=species:S:1:pos:R:3:forces:R:3 structure_index=0 total_energy=-30.632854461669922 stress="-0.05099877342581749 0.0049378592520952225 0.010911850258708 0.004937108606100082 -0.04362791031599045 0.006061022635549307 0.010911158286035061 0.006060830317437649 -0.05022743344306946" pbc="T T T"
Be       0.52263566       1.44367585       1.97196336      -0.01124063      -0.00259054      -0.01736690
Be       0.52173328       1.44380657       4.06362350      -0.01272572      -0.00826934       0.02238182
Be       2.33357449       1.44383242       3.01864730       0.02414678      -0.00734131       0.00108537
Fe       2.32816429       0.16939565       5.10344991      -0.00175347      -0.00791072      -0.01131205
Be       1.12613290       3.15191055       3.01862122      -0.00034978       0.02372019      -0.00123299
Ni       2.32821826       2.72084348       5.10234267       0.00192278       0.00239161       0.00644479
