10
Lattice="3.805488348007202 0.0 -0.0008974851807579398 -1.8994696159086297 7.922948905949143 -0.49770236015319824 0.0 0.0 9.198564529418945" Properties=species:S:1:pos:R:3 pbc="T T T"
O        0.35244099       3.78467105       3.44502619
Eu       0.34886168       1.48840504       4.49057494
Eu       2.25867908       4.51860686       4.97737455
Eu       2.25295501       3.11672363       1.87109538
Eu       0.35273667       7.66247345       6.70941672
Eu       0.35478527       6.27679647       2.26255048
Eu       0.35346620       2.89015651       7.59942792
O        2.25572497       2.22402227       6.02446529
Pb       2.25561543       5.40651021       8.61565080
Pb       0.35053657       0.60648078       0.85688267
