8
Lattice="3.139694929122925 0.0 -0.7465230822563171 -2.160522655987478 4.8947700384481445 -2.061073064804077 0.0 0.0 6.8688483238220215" Properties=species:S:1:pos:R:3 pbc="T T T"
Mn      -0.66016795       2.25256696       1.66171285
Mn      -1.34847158       4.80904979      -1.15903277
As       0.49201970       2.97099001      -0.43278648
As       1.31412202       1.26026656       2.96619699
As       1.16825449       4.13959788       2.37415553
C        2.29360563       0.62048012       0.16731123
Mn      -0.05909630       2.93729743       4.15747614
Mn       1.88888785       1.11903427       5.35382551
