15
Lattice="5.193968458932341 0.01780135470195565 0.3152063865752187 0.7404312284887203 4.66349589462501 2.358705397316592 0.031067957320489618 -0.009628693850706001 7.412094793894342" Properties=species:S:1:pos:R:3:forces:R:3 structure_index=0 total_energy=-84.67955780029297 stress="-0.005889047868549824 0.0012134129647165537 0.004132900387048721 0.0012128743110224605 -0.007278203498572111 -0.003582744160667062 0.004132015630602837 -0.003582990262657404 -0.006587482988834381" pbc="T T T"
Li       1.77281092       0.67274578       4.00768928      -0.00818533      -0.01016282       0.00140544
O        0.81377342       1.80536843       5.42029682       0.01507024       0.00304465      -0.01322523
Li       2.99572930       3.78413736       3.11869802       0.01953129      -0.02630787      -0.00276579
O        4.83081452       3.81344317       2.77886776      -0.00604245      -0.02106041      -0.01422712
Fe       4.95507682       0.36235290       6.54521145       0.01318456      -0.00362713       0.00421619
F        3.30622097       0.80943263       5.48928883       0.03213638       0.00739394       0.00480422
Fe       2.30803905       2.29509341       6.57101123       0.00647013       0.00816901       0.00744209
O        1.43780509       3.56337379       7.67970167      -0.00820617      -0.01321486       0.02589092
Fe       5.34611874       3.33120824       4.65494002      -0.03141478       0.02445586       0.02375631
Fe       0.39236124       2.15230615       1.54087878      -0.01771238      -0.01040068      -0.00932413
F        5.19177508       0.49429662       2.98758064      -0.04220227       0.02021016      -0.00845019
F        3.25483989       3.64530754       5.38835002       0.00034809       0.01388715      -0.00174677
F        3.99899548       1.92229050       7.71516900      -0.01625413       0.00655703       0.00300218
F        1.40020702       0.68964678       7.68639906       0.02902327       0.01768697      -0.01378709
F        1.95186006       2.29991977       2.97732610       0.01425338      -0.01663118      -0.00699106
