20
Lattice="3.5357388865569495 0.015268078615916036 0.5167982861719943 1.2559969560140192 7.520404521321557 3.281062863762284 0.06816665025458728 0.1003014337280568 11.665703801967597" Properties=species:S:1:pos:R:3:forces:R:3 structure_index=0 total_energy=-197.25222778320312 stress="0.007413576357066631 -0.000690232845954597 -0.0006894360412843525 -0.0006902618333697319 0.005809552501887083 0.00016268745821435004 -0.0006895094993524253 0.00016295677050948143 0.006374944467097521" pbc="T T T"
Gd       3.01238719       1.57914865       1.84813082       0.00790530       0.00151412       0.00017466
O        3.34654897       5.47384527       8.42036865      -0.01235288      -0.01511443      -0.02569571
O        0.43089911       0.30720873       5.39323346      -0.00659715      -0.00540664      -0.00055700
Eu       3.28672099       4.66267979      12.21866817      -0.00323201      -0.00037964       0.00210730
Eu       1.83646188       0.20510685       9.97300566       0.01043013      -0.00111461       0.00108067
O        2.91039832       5.44782965       2.69294918      -0.00076443      -0.00024971       0.00220662
H        3.86453631       4.26201924       6.82882642       0.01319870       0.01443394       0.04083980
O        3.70752636       7.12395963       5.98327222      -0.01285081       0.00576033      -0.00874319
O        2.08293767       1.93718545       8.13122070       0.00170825      -0.00337909       0.00095907
Eu       1.01589248       4.24909150       3.41100965      -0.00341756      -0.00054389       0.00393243
Gd       1.77396491       6.30909902       6.89999605      -0.00787090       0.00240700      -0.00826021
O        1.59505546       6.49589761      11.72100316       0.01556965       0.00143133       0.00009829
Eu       3.67746232       3.18897390       9.29757169      -0.00243383      -0.00551176       0.00331809
Ni       1.92699616       6.10609989       9.82900863       0.00786349       0.00011577      -0.00168654
O        1.69159728       4.18450610      10.30914572      -0.00453854       0.00472178      -0.00358784
O        1.20400554       3.99838258       5.93850123      -0.01062168      -0.00450632      -0.00246961
O        3.44925632       1.39514024      11.21722816       0.00701063       0.00395753      -0.00275660
Gd       2.14144305       1.66655932       5.89843883      -0.00893438       0.00254136      -0.00043656
O        1.38691279       3.04214952      13.07898276       0.00806338       0.00283265      -0.00035160
O        2.79323167       2.59415553       3.98137533       0.00186457      -0.00350979      -0.00017196
