8
Lattice="6.627504348754883 0.0 3.8332149982452393 2.2062606314216286 6.246561152921177 3.8371589183807373 0.0 0.0 7.65722131729126" Properties=species:S:1:pos:R:3 pbc="T T T"
Eu       4.31998213       0.03279218       5.21499640
Eu       5.42497624       3.15454724      10.96406823
Eu       1.00838060       0.03360545       3.30118207
Eu       4.32145764       0.03129140       9.04674983
Eu       2.11083905       3.15430680       9.04162311
Eu       1.00861248       0.03300328       7.12945144
Eu       2.10973674       3.15375937       5.22461383
Y        5.41899859       3.15433870       7.12746392
