8
Lattice="3.994941234588623 0.0 -1.5036226511001587 -0.48060886218181825 4.754776528734458 -0.5679391026496887 0.0 0.0 4.786491870880127" Properties=species:S:1:pos:R:3 pbc="T T T"
Ga       2.35397293       0.97351400       0.04929350
Fe       0.54498836       2.31861693       1.20781605
Fe       1.25938336       0.34743980       2.59079024
Zn       3.40217069       1.70935714       2.25462593
Zn       1.55019595       3.06820983       3.41691992
Fe      -0.28180354       4.44040332      -0.23904525
Fe       2.55902480       3.76548541       0.96349994
H       -0.14775730       3.86101475       1.37046043
