12
Lattice="4.5281291007995605 0.0 -0.8339503407478333 -2.8604896752643323 6.181376554885803 -0.8348874449729919 0.0 0.0 12.574718475341797" Properties=species:S:1:pos:R:3 pbc="T T T"
Te       1.07645342       4.44856562      10.88851165
Hg       1.24524001       2.02552152      -0.22891601
Te       2.27274828       1.51210479       5.04647942
Te       2.83750555       3.39115340       8.67560396
Ge       3.44492148       0.93710048       9.77799618
Te      -0.52318430       3.10500102       2.31923316
Hg       0.33761217       2.55623194       7.14670017
As       0.24425054       5.08202679       5.61933253
As       0.32035646       0.02801153       8.66789479
Te      -1.29535943       5.77955983       0.38963803
Te      -0.01664893       0.44893267       3.52251050
As       1.50215509       4.14345928       3.66676997
