4
Lattice="4.015127607932054 0.006217176105619413 2.2770235539766936 1.354533676996876 3.776565373569517 2.283077315871489 0.03206187073343115 0.016865891902101735 4.613654423701813" Properties=species:S:1:pos:R:3:forces:R:3 structure_index=0 total_energy=-40.760005950927734 stress="0.039652809500694275 0.04581385478377342 -0.04297851026058197 0.045812949538230896 -0.007840239442884922 -0.009146628901362419 -0.042978305369615555 -0.00914575345814228 -0.08321160823106766" pbc="T T T"
Hf       3.34873961       1.54143768       6.57253521      -0.02347755      -0.02138199      -0.01511527
Rh       4.66487348       2.47075523       4.25338941       0.00422257       0.02066619      -0.02455196
Tc       1.99617921       0.59011334       4.27586175       0.00452607      -0.00630944       0.03156587
Hf       1.99970723       3.41614124       4.26715348       0.01472894       0.00702534       0.00810136
