11
Lattice="4.008998962794072 -0.0008629945343762148 0.0006725721922068715 0.0029929123386936225 7.092426278781872 -1.2093018631152068 -0.0009866542913581178 -0.007491985269002553 7.686455802178447" Properties=species:S:1:pos:R:3:forces:R:3 structure_index=0 total_energy=-94.44821166992188 stress="0.014250032603740692 7.117557834135368e-05 0.00017758968169800937 7.127830758690834e-05 0.03384585678577423 0.0067881373688578606 0.0001774539559846744 0.006788536440581083 0.016183901578187943" pbc="T T T"
Eu       1.26949911       1.82770513       6.72249194      -0.00043293      -0.00046632      -0.00002136
Eu       1.27300485       6.98934962       1.65160227      -0.00134158       0.00105415      -0.03527664
Mn       3.27682589       6.55002664      -0.89898860      -0.00060630      -0.02384707      -0.01203157
Mn       3.27533454       4.20417007       5.44891709      -0.00089423       0.02376375       0.01193339
Mn       1.27218611       5.86452720       5.11396019      -0.00101559      -0.00065035       0.01635535
Ge       3.27423038       1.85317528       1.48142636       0.00046530      -0.01564278      -0.00405791
Eu       1.26931161       3.76502395       2.89772656       0.00237102       0.00029823       0.03554368
Ge       3.27436618       1.80829117       4.27780239      -0.00030981       0.01522849       0.00417913
Mn       3.27428172       4.16235767       0.39912461       0.00200541       0.00300063       0.00162259
Mn       1.27063064       4.89076414      -0.56474336       0.00143651      -0.00008225      -0.01664934
Mn       3.27736253       6.59169761       4.15084407      -0.00167782      -0.00265653      -0.00159732
