16
Lattice="3.2722660156415517 -0.010570824253035934 0.5559141807867308 1.8628331448307958 6.300095890513969 -1.0649452306291745 -0.027214637959475218 -0.06276042400216197 10.156130582350391" Properties=species:S:1:pos:R:3:forces:R:3 structure_index=0 total_energy=-109.82222747802734 stress="-0.004600534215569496 0.0007840450271032751 0.00011913434718735516 0.0007833523559384048 -0.0026974177453666925 0.0005116784595884383 0.000120248892926611 0.0005130781210027635 -0.008180356584489346" pbc="T T T"
Li       2.89408055       3.42062496       3.32343118       0.00398025      -0.02050502      -0.01706931
Li       1.60174650       0.88318769       1.01855333       0.00129730      -0.01316968       0.00264864
Mn       2.10516166       5.27529298       8.03747110       0.00182858       0.00083259       0.01192459
O        3.71143586       4.17132746       8.47620584       0.00139320       0.00702655       0.00280982
B        1.04738466       1.60239029       4.27262926      -0.00260073       0.00698823       0.00121394
Mn       4.80110609       5.59924235       2.00111808      -0.00069113      -0.01323812       0.00675640
O        1.79037914       2.41479645      -0.12137985       0.00263558      -0.02998385      -0.02042823
Li       2.33255680       0.39820801       6.55046783      -0.01222156       0.04944196       0.00429991
O        3.16737970       4.29629732       1.69890121       0.00091425      -0.01803130      -0.00875576
Mn       4.06475180       3.64845134       6.38598102       0.00530093       0.02501275      -0.00944704
O       -0.00625189      -0.07089714       0.56352321      -0.00204752      -0.00691953       0.01457620
Mn       3.43666889       3.24849397       0.10966224       0.00264967      -0.02160206      -0.01100721
O        1.21125130       0.60698414       3.32773571      -0.00258729      -0.01064795       0.01382995
O        1.11658782       2.94791442       3.87257479       0.00141104       0.00616181      -0.00817862
O        0.81293073       1.36802635       5.62979475      -0.00662015       0.02372414       0.00103424
O        2.42977476       4.99692225       6.13860512       0.00535759       0.01490977       0.01579195
