20
Lattice="6.701018333435059 0.0 -0.7990394234657288 -1.9080688631100742 6.9478621302105354 -1.3039956092834473 0.0 0.0 11.425216674804688" Properties=species:S:1:pos:R:3 pbc="T T T"
O       -1.60596738       6.45600645       2.01043701
Co       0.78682442       5.21609759       9.83147249
Cu       0.90102900       1.15455173       7.99729199
Cs       4.00769461       3.59176864       8.16062156
Cs      -1.30560723       4.83715306       4.53655449
I        4.52596041       1.55168939       4.33701848
O        1.09746150       2.60176300       3.22717269
O        1.57880496       0.61912856       6.21586107
O        3.89961647       3.48962350       1.38332194
Cu       0.84096570       1.05927143       4.34137565
Cu       3.43589036       0.42249274       6.25818386
I        0.56926831       3.77701165       7.62425144
Cs       5.85569582       1.35724886       0.24724260
O       -0.70753541       4.57236825      -0.38934736
I        5.39715486       0.02181705       7.86109512
Cu       4.41580070       4.89057019       0.07737687
Cs       1.32442169       5.33014012       1.68907205
Cu       2.84675929       2.54013128       2.62752147
O        2.69093121       5.28370223      -0.96641735
I        2.23229007       0.84400690      10.34913166
