20
Lattice="4.666450500488281 0.0 1.6885879039764404 2.5250765208908335 6.25930501741815 1.0306377410888672 0.0 0.0 6.662475109100342" Properties=species:S:1:pos:R:3 pbc="T T T"
Fe       2.15084543       0.82427302       5.25385848
Fe       5.06148884       6.09487996       8.56248102
Fe       3.19993690       4.46954961       2.93547256
Fe       4.63489597       3.77886918       7.62596469
Fe       5.74679580       3.95643162       3.28039209
H        1.11313241       2.26896569       5.60839835
Ni       0.70521994       1.68098697       0.60043011
Fe       3.57649064       0.13404524       3.26523595
Fe       1.46353434       2.96537837       3.87341513
Ni       2.86944797       2.17645661       1.92186716
Fe       4.27110087       1.33790064       6.59517638
Ni       6.46988845       5.30423101       6.61348353
Fe       2.50542131       3.26764421       6.26663420
Fe       1.04283140       0.64777843       2.92892385
Ni       4.30230986       4.81032086       5.28968070
Ni       2.84880971       5.55499098       7.23043406
H        4.71039001       5.39828913       3.63580564
H        3.20326163       6.22439483       2.18594685
Ni       3.91721949       2.42861228       4.22850455
H        4.27270029       3.09081450       5.85342787
