11
Lattice="3.7852178187816565 -0.007495414111971509 0.05585915764695307 -0.1652407399686996 7.889625263521013 -2.656585328712755 0.11393146014242433 -0.6641049574925565 9.393880500054852" Properties=species:S:1:pos:R:3:forces:R:3 structure_index=0 total_energy=-62.54799270629883 stress="0.013664997182786465 -0.0006966575747355819 0.0003205793327651918 -0.0006968581583350897 0.011247408576309681 0.0005102413706481457 0.0003211155708413571 0.0005113007500767708 0.016510717570781708" pbc="T T T"
Zr       3.06783796       5.31081016       3.81012782       0.00225015       0.00194417       0.00093471
Se       1.15161023       6.26273603       5.59657752       0.00642877       0.00370674       0.00007048
Se       3.25809714      -0.03522365       5.47071632      -0.00648974      -0.01251862      -0.00670751
Se       3.09498357       4.94218702       1.13311263      -0.00431959      -0.01447546      -0.00101180
Zr       1.19179613       3.04189795       1.33982647       0.00283433      -0.00319760      -0.00093854
Zr       3.21710068       0.39088767       8.14163258       0.00000914      -0.00561437      -0.00273918
Ag       3.13232207       2.85028798       6.04649824      -0.00153987      -0.02010755      -0.00766242
Se       1.32880041       2.36164557       7.98263094      -0.00594545      -0.01580873      -0.00488428
Se       1.16861807       3.31551217       4.04670295       0.00691953       0.01094303       0.00624070
Ag       1.18018449       8.24849863       0.84963590      -0.00834742       0.04808602       0.01374014
Se       3.08424589       1.00889784       1.51476185       0.00820021       0.00704248       0.00295751
