19
Lattice="6.352842807769775 0.0 0.8302028179168701 0.7332204705619028 6.310433823868235 0.8279350996017456 0.0 0.0 6.407582759857178" Properties=species:S:1:pos:R:3 pbc="T T T"
Fe       4.56417829       1.92809860       4.60195268
Fe       1.55832118       6.07169998       7.00567088
Fe       6.22519974       0.06627937       4.59867140
Fe       5.70394192       4.09331255       5.30718580
Fe       0.76973426       2.53442285       2.90012398
Fe       1.96533515       1.92813094       6.88673110
Fe       6.44160026       1.92750969       6.15894797
Fe       2.52052905       4.09286678       1.69593717
Dy       2.50381918       4.07819149       4.87366010
Fe       1.75089103       0.06176030       2.12388740
Fe       5.76052623       1.32239163       2.17811840
Fe       3.26644962       1.92705139       2.53908157
Fe       6.80856362       5.08338700       3.36658446
Fe       4.78005127       3.79307018       2.95381342
Fe       6.65836895       3.78952413       7.71645271
Dy       4.76071550       6.08625953       7.43975341
Fe       4.74531540       6.07413003       4.20962200
Fe       2.15426326       0.94544619       4.47882985
Fe       4.37556085       2.90964685       7.00776621
