12
Lattice="2.626224051253286 0.0016337604862486416 -0.000619647021617049 -1.316169638755522 4.5878182435605765 -0.7749264645140381 0.0029627373067617415 -0.2387320946822477 10.892097442742568" Properties=species:S:1:pos:R:3:forces:R:3 structure_index=0 total_energy=-94.66941833496094 stress="0.012333633378148079 -3.102126356679946e-05 -4.609736151905963e-06 -3.095369174843654e-05 0.011112547479569912 0.005028318148106337 -5.088966190669453e-06 0.005028245039284229 0.023513194173574448" pbc="T T T"
Ni       1.97615493       0.75499000       4.58744470       0.00023069       0.03802366       0.03134279
Mn       0.66029392       3.88160504       1.84682084      -0.00015281       0.00087298       0.01231461
Mn       0.66178894       3.85869600       7.64899227       0.00024924      -0.00197471       0.00467457
Fe      -0.65228690       2.47616963       0.45698826      -0.00010919      -0.00410586      -0.00591887
Mn       0.66203886       1.35805181       2.23974438      -0.00034618      -0.00319057       0.01612297
Ni      -0.65192190       4.26882034       5.66579630      -0.00007645       0.00783278      -0.00007887
Mn       1.97539256       0.04980097       0.41199183      -0.00011945      -0.01876013      -0.00426800
Fe       1.97636338       1.66017508       7.28249096      -0.00038200       0.00201824      -0.02004869
P        0.66241074       2.38919700       5.56202706      -0.00057353       0.03566317       0.00686467
P       -0.65042421       2.96962802       9.22897602       0.00035940      -0.03741682      -0.02053427
Fe      -0.65196575       3.02250100       3.58406943       0.00039851       0.01009911      -0.00983524
Mn       0.66393642       1.02801538       9.49096498       0.00052176      -0.02906199      -0.01063567
