12
Lattice="5.258916435147837 0.007274125960617236 -1.9011415127736784 -2.8916254180469503 4.5834533813653 -1.5480295983691974 0.00573362291739352 -0.009870831783847475 5.650188781137118" Properties=species:S:1:pos:R:3:forces:R:3 structure_index=0 total_energy=-78.25604248046875 stress="0.01786212809383869 0.003217685269191861 0.0019376248819753528 0.003214626805856824 0.019393958151340485 -0.005444935988634825 0.0019382645841687918 -0.005445251241326332 0.020248398184776306" pbc="T T T"
O        0.36363995       1.52267521       0.71300148       0.02582562      -0.00646250       0.01686379
Fe       1.36079969       1.84396654      -0.88044442      -0.01282639       0.01103757      -0.01374784
F        2.67020987       2.12645360       3.05120592       0.00026622      -0.00729720      -0.01015636
Cr      -0.52394090       2.83729656       1.88375055      -0.01195282      -0.01020318      -0.02703857
O       -0.87657249       4.11934457       0.37306394       0.02058462      -0.02161893       0.02260913
Cr      -2.46229296       4.17119612      -0.70408944       0.00822237      -0.01098260       0.01339412
O       -0.10817827       1.76889040       3.54098007      -0.02380830       0.01685610      -0.01325622
Fe       3.45441373       0.80429875       1.67401206       0.00439829      -0.00963739       0.01115847
O        3.05908352       1.81421215       0.09117834      -0.01124012       0.01896062      -0.02288501
F        1.56915997       3.89818093      -1.03960033       0.00641666      -0.00479701      -0.00531578
F       -1.39843848       4.27414408       3.21482018      -0.00875354       0.02701449       0.01890835
F        1.14907151       4.07225937       1.86196787       0.00286730      -0.00287002       0.00946581
