8
Lattice="3.5570130348205566 0.0 -0.7884858250617981 0.03856809268125453 5.353329011053253 0.042260490357875824 0.0 0.0 7.896565914154053" Properties=species:S:1:pos:R:3 pbc="T T T"
F        1.26401822       4.39981151       1.98017973
O        0.08184364       3.55390643       4.80418692
F        2.43188974       4.51201267       6.82082653
F        0.69515936       1.71956481       7.46022042
Bi       0.37434340       0.10094206       6.08150937
Bi       1.59133520       2.75128021       3.33882480
O        1.89891312       0.90161191       4.61949878
F        3.13021857       1.75506634       1.91763604
