10
Lattice="4.654487133026123 0.0 0.04296867176890373 -0.04113932566352471 6.670343375595553 -2.3753669261932373 0.0 0.0 7.2554450035095215" Properties=species:S:1:pos:R:3 pbc="T T T"
Ti       3.47260524       5.30145045       1.26634206
Ti       3.48902361       6.61590864       3.76746490
Bi       1.17524465       1.01451557       2.10153525
Bi       1.15799549       4.32124305       5.32956532
Br       3.49420392       2.68441923       0.04724231
S        1.14978004       5.16069517       0.75308916
S        1.18919080       0.15900500       6.62794316
S        3.50608650       0.88853718       4.06104712
S        3.48497967       4.39145907       3.34218529
S        3.47654558       6.01086694      -1.10397973
