10
Lattice="4.873074569518154 0.02304333194676529 0.9112029951896435 -0.018216529390184397 5.022598302971412 1.1950641896706027 -0.04286625285956854 0.013109695933012639 5.696675434686379" Properties=species:S:1:pos:R:3:forces:R:3 structure_index=0 total_energy=-62.06513214111328 stress="-0.017993906512856483 -0.0003750861797016114 -0.01372821070253849 -0.00037459435407072306 -0.03375178575515747 -0.010901853442192078 -0.013730871491134167 -0.010901912115514278 -0.0429711639881134" pbc="T T T"
Mn       2.48790526       3.25018755       4.15236533      -0.01644942       0.00267299      -0.02066047
F        3.90534906       4.32349405       5.32031000       0.01007015      -0.00368731      -0.00188181
Mn       0.76144799       1.83793455       1.21709272      -0.01242813       0.01819978       0.01420362
F        3.66382993       3.03823140       2.24000993       0.00791209      -0.00767012       0.02509674
F        4.54153721       0.61772579       6.62519630       0.01465878       0.02599476      -0.01859356
F        2.02708828       5.03720877       2.93336829       0.01243719       0.00977912       0.02993114
F        0.92988698       2.37949868       3.13528774       0.01115358       0.03015390      -0.00847258
F        1.57511778       3.70405562       6.16820246      -0.01337874      -0.02917600       0.00417010
Cr       3.06519814       4.71618185       7.01127643      -0.00748521      -0.00575936      -0.00281823
F        2.37818908       1.40397688       5.23423684      -0.00649038      -0.04050776      -0.02097475
