20
Lattice="4.666450500488281 0.0 1.6885879039764404 2.5250765208908335 6.25930501741815 1.0306377410888672 0.0 0.0 6.662475109100342" Properties=species:S:1:pos:R:3 pbc="T T T"
Fe       2.15703316       0.82425510       5.25120568
Fe       5.06116966       6.09277928       8.56450716
Fe       3.19694280       4.47334304       2.93107353
Fe       4.63689752       3.77864903       7.62581097
Fe       5.75300570       3.95579038       3.27819462
H        1.11147429       2.26853893       5.61130791
Ni       0.70383201       1.68233851       0.60015329
Fe       3.57267011       0.13227362       3.26957505
Fe       1.46330818       2.96313128       3.87499414
Ni       2.86968261       2.17529376       1.92016220
Fe       4.26817678       1.34222309       6.59062596
Ni       6.46933262       5.30355070       6.61158253
Fe       2.50156201       3.26454382       6.27101333
Fe       1.04423563       0.64821232       2.93003277
Ni       4.30108892       4.81121273       5.29041357
Ni       2.85017683       5.55522949       7.23274469
H        4.70855273       5.39803966       3.63850498
H        3.20404314       6.22559498       2.18280667
Ni       3.91905332       2.42780333       4.23070781
H        4.27348324       3.09201009       5.85011629
