11
Lattice="5.75930461997399 0.0034033933034907614 -2.0068746429679476 -2.955562346667957 4.972708217058289 -1.9370852862833572 0.014234153046858515 -0.003598694466196155 6.11175604690167" Properties=species:S:1:pos:R:3:forces:R:3 structure_index=0 total_energy=-71.73658752441406 stress="-0.014945981092751026 -0.0010036502499133348 0.004416097886860371 -0.0010024509392678738 -0.02145770564675331 0.0013925442472100258 0.0044173807837069035 0.0013925305102020502 -0.017766110599040985" pbc="T T T"
Mn      -0.29101472       1.80105141       1.96048778      -0.00289594      -0.00651418       0.00557623
F       -0.28331468       3.69433782       1.94982286      -0.01154983       0.00561023       0.01860011
F        1.60800600       1.94430764       3.14368463      -0.00157677      -0.00743525       0.00473304
Eu       1.87760827       0.51760150       5.03204541       0.00689564       0.00992019      -0.00746880
Mn       3.32920426       3.10539744       2.97899704       0.00415368       0.01036319      -0.00941119
F        0.80675072       1.86455643       0.41942759       0.00577131      -0.02040409      -0.00441948
F        2.84408967       4.17709059       1.36596203       0.00084862       0.02667217      -0.02984801
F        3.73079761       1.94821944      -1.45585958      -0.00460751      -0.00400494       0.00347899
F       -0.75314511       4.16470293      -1.20029314       0.02657446       0.02472121      -0.01035966
F        4.37257745       1.77005523       1.49100803      -0.01871705      -0.00808388       0.02461034
F        2.51761285       4.88885905      -2.00023128      -0.00489672      -0.03084451       0.00450857
