9
Lattice="4.838178634643555 0.0 0.0020190109498798847 0.004140374195680074 6.746819179401037 -3.8876819610595703 0.0 0.0 7.788491725921631" Properties=species:S:1:pos:R:3 pbc="T T T"
Li       4.57976282       3.86494626       3.74106891
Cd       4.57773084       1.62145820       1.62325667
Cd       2.15958832       3.86821165       5.52433168
Eu       2.16065487       3.87289057       1.03390516
Li       4.58062427       5.40872907      -1.37389185
Eu       2.15791424       1.00962686       3.86434757
Eu       2.16240562       6.73282424       3.87490817
Li       4.57829867       2.32494619       6.40606450
Cd       4.58092450       6.11930189       1.62624824
