11
Lattice="5.764562897955711 -0.0006733173800737427 -2.001711844778671 -2.96378467347142 4.973266096502263 -1.9378091958748433 0.020381708872475833 -0.0001304972923330199 6.113654948667598" Properties=species:S:1:pos:R:3:forces:R:3 structure_index=0 total_energy=-71.73573303222656 stress="0.03905193880200386 -0.000723355682566762 -0.0009939735755324364 -0.0007236822275444865 0.04028724133968353 0.0009845169261097908 -0.0009950349340215325 0.0009854829404503107 0.03919876366853714" pbc="T T T"
Mn      -0.28934265       1.80413152       1.96037078      -0.00936002      -0.01741345       0.01349552
F       -0.28359383       3.70008645       1.95210356       0.00132054      -0.04933286       0.00107581
F        1.61423863       1.94533714       3.14958941      -0.02121629      -0.00114714      -0.01690288
Eu       1.88538120       0.51995858       5.03431452      -0.00563018      -0.01402833       0.01411729
Mn       3.33367288       3.10384774       2.98674507       0.01473399       0.02765909      -0.02154866
F        0.80994345       1.86396278       0.41704753      -0.02589187      -0.00107373       0.04077470
F        2.84712174       4.17327539       1.37523157       0.00795573       0.03138201      -0.03062546
F        3.73060680       1.94516358      -1.45267452       0.02039083       0.00135826       0.01443563
F       -0.76107595       4.16170953      -1.19751487       0.02326182       0.03060565      -0.01937214
F        4.37776790       1.77158124       1.49815471       0.00754941      -0.02165648      -0.01214904
F        2.51781251       4.88575534      -1.99719506      -0.01311398       0.01364720       0.01669902
