8
Lattice="2.911754279081423 -0.0007898263410926857 -0.4959763084739331 -0.17033704072547678 4.06573222783221 -1.0066584911094414 -0.006371566936035418 0.006300846273552746 8.75787675678943" Properties=species:S:1:pos:R:3:forces:R:3 structure_index=0 total_energy=-65.67562103271484 stress="-0.009412671439349651 8.719635661691427e-05 0.013626353815197945 8.643937326269224e-05 0.07191263139247894 -0.002044455846771598 0.013625708408653736 -0.002043966669589281 0.06874193996191025" pbc="T T T"
Fe       1.75119294       2.89215274       0.93584249      -0.00520569      -0.01014459       0.00556770
Fe       1.49214803       0.36286812       8.22434389       0.00034370       0.00317713      -0.00063018
Fe       0.62780140       3.39195223       3.14646310       0.00461176       0.00725938      -0.00086591
Fe       1.06949701       1.89365707       5.74222575       0.00559520       0.01481985       0.02089018
Fe       2.19379383       1.39713806       3.53864862      -0.00842807      -0.01425340      -0.01928543
Fe      -0.04928897       2.39657325       7.96759000       0.00196033      -0.00220437      -0.00076899
Rh       2.43281041       3.91746016       4.94761956       0.00187161      -0.01012020       0.00700855
Rh       0.38820259       0.86971471       1.73704124      -0.00074894       0.01146626      -0.01191597
