20
Lattice="5.3661465678609295 0.052126573409210376 -0.569524828471134 0.8310670137370285 5.218644161265378 -0.20451218666465973 -0.13771111874160322 -0.13457425255311042 8.883572409884534" Properties=species:S:1:pos:R:3:forces:R:3 structure_index=0 total_energy=-145.42723083496094 stress="0.01216734666377306 -0.002223183400928974 0.0018519506556913257 -0.0022235021460801363 0.014170988462865353 0.0024677154142409563 0.0018505208427086473 0.002467238809913397 0.010163568891584873" pbc="T T T"
Cu       4.41729898       4.97022572       7.14712778      -0.00820838       0.00420613      -0.00389524
Ca       5.39443428       1.77063339       2.94307504       0.00328044       0.00497996      -0.00203544
Mn       0.81731305       0.98467811       6.63670229      -0.00260082       0.00237010       0.00147859
Mn       2.71779968       3.32829119       2.20133219       0.00095093      -0.00193524       0.00262782
O        1.87894538       1.78911725       4.87357134       0.00185043       0.00631443      -0.00170574
O        2.11223630       5.07012615       2.73992101      -0.00102994      -0.00134969       0.00624138
Mn       4.53024611       2.37543644      -0.17963047       0.00161592      -0.00483177       0.00084568
O        5.16409765       2.98079818       6.77993747      -0.01976901       0.02163947      -0.00358886
Mn       2.69166115       0.12974906       4.28748847       0.00388141       0.00561816      -0.00770682
Mn       1.87291677       0.80808022       0.88722131       0.00454977      -0.00253120      -0.00345406
O        2.57370524       1.66886653       7.70964639       0.01978184      -0.04142582      -0.00458909
Mn       1.65811759       3.53245724       7.99808008       0.00032904      -0.00391309      -0.00206836
O        0.06942846       0.22664307       8.58549476      -0.00128417       0.02366218       0.00487992
Mn       3.54099432       2.62929261       5.58414324      -0.00375439      -0.00028689       0.00078674
O        4.36896234       0.95221405       4.94956815       0.00029683       0.00161339      -0.00023537
O        1.04270252       2.52577863       1.40895614       0.00610149       0.00382522      -0.00880236
O        4.10018538       3.58904488       3.58623125       0.00195086       0.00316173      -0.00255120
O        3.37185277       4.21916790       0.30704559       0.00754811      -0.00591201       0.01250057
O        3.51577505       1.64449605       1.64122990      -0.00209817      -0.00853550       0.01037925
O        2.80382923       4.36734295       6.14167547      -0.01339228      -0.00666937       0.00089283
