12
Lattice="5.623250484466553 0.0 0.0015120496973395348 -2.8168351977735995 4.865835789775443 -0.00029649067437276244 0.0 0.0 8.681859016418457" Properties=species:S:1:pos:R:3 pbc="T T T"
Eu       2.28276334       2.90061445       2.20249549
Eu      -0.53006378       4.51932760       6.54017259
Pt      -0.52624683       2.91647415       3.80627776
Pt       0.89488024       0.45932311       3.80476934
Eu       2.28414462       2.89921270       5.40880708
Pt       3.67796239       0.45761906       3.80452062
Pt       3.67665455       2.09622870       8.14941446
Eu      -0.52920128       4.52182971       1.06645118
Pt       0.89418934       2.09729492       8.14548561
Pt       2.28102426       4.50452741       8.14471025
Ge      -0.52587949       1.27754052       5.97317780
Ge      -0.52622020       1.27843021       1.63310712
