11
Lattice="5.209165851013964 0.10129750564988994 0.06542005426080369 -1.3355945458305576 5.0576848727874975 1.2224225550338341 0.09668329529482751 0.9334975735175671 5.869831152469941" Properties=species:S:1:pos:R:3:forces:R:3 structure_index=0 total_energy=-53.466190338134766 stress="0.039469391107559204 -0.018848305568099022 -0.003822256810963154 -0.018845584243535995 0.039268698543310165 -0.01683484949171543 -0.003822288941591978 -0.016837112605571747 0.050325144082307816" pbc="T T T"
H        3.09025130       0.63563816       2.36410247      -0.02113675       0.03498630      -0.02285349
O        4.25332232       4.26226815       4.26903789      -0.00490676       0.00026670      -0.00395820
O        1.09935643       2.63133634       3.77615329       0.00942209       0.01804966       0.01925927
O        3.72700162       3.21049339       6.48254635       0.00624481      -0.01588121       0.00254547
Cu       2.82634023       4.51668580       5.43921343      -0.00925513      -0.01198044      -0.01918189
Cu      -0.14917727       2.78590717       5.13422332       0.01308864       0.00135601       0.01783508
O        0.68372086       1.27535243       5.81879634       0.03349409      -0.00348824       0.02631515
O        1.40562752       4.79956998       6.60575197      -0.00995922      -0.03244425      -0.02118489
Tl      -0.44878163       3.23898711       2.16556751      -0.00683324       0.00163211       0.00893120
Cu       1.95589120       1.14555715       4.49961581       0.00380025      -0.00299912       0.00670776
O        3.39095740       0.93209837       3.25151587      -0.01395872       0.01050207      -0.01441519
