12
Lattice="5.658430578604965 0.003083910276662765 0.000739238483108868 -2.831789343622516 4.89883647788755 -2.4946981699912284e-05 -0.0011625078037169492 -0.0001954211377542808 8.567864457831124" Properties=species:S:1:pos:R:3:forces:R:3 structure_index=0 total_energy=-97.4687271118164 stress="-0.0329497866332531 0.0005529634072445333 -4.951750725012971e-06 0.0005531401839107275 -0.03218720108270645 7.67759993323125e-05 -4.535964308161056e-06 7.705423922743648e-05 -0.03202410787343979" pbc="T T T"
Eu       2.29890056       2.92219604       2.17461091       0.00193858      -0.00142618       0.01363233
Eu      -0.53153158       4.55185681       6.45694307       0.00207243       0.00420202       0.01965656
Pt      -0.52951620       2.94751309       3.75522133      -0.00229801      -0.01018232      -0.00498741
Pt       0.90999072       0.45689415       3.75443227      -0.00817212       0.00363222      -0.00023065
Eu       2.29947389       2.92079024       5.33582922      -0.00059447      -0.00012483      -0.01626323
Pt       3.69152316       0.45821545       3.75418127       0.00848511       0.00611085       0.00144886
Pt       3.69009680       2.11872793       8.04056159       0.00663298      -0.00351179      -0.00675698
Eu      -0.53059434       4.55365080       1.05083943      -0.00081978      -0.00027141      -0.01446510
Pt       0.90862457       2.11717269       8.03823219      -0.00925106      -0.00507547       0.00018684
Pt       2.29750768       4.52703152       8.03772637       0.00177954       0.00870258       0.00314393
Ge      -0.52942337       1.28592079       5.89586459      -0.00013022      -0.00064976       0.00275714
Ge      -0.52894277       1.28693589       1.61201306       0.00035712      -0.00140585       0.00187769
