8
Lattice="3.768462848899328 8.924837531947167e-05 -0.9644738261121723 -0.24913730344982643 3.771593015266389 -0.9730997529723542 -0.06955539324847243 -0.07008134144261428 7.573482899790691" Properties=species:S:1:pos:R:3:forces:R:3 structure_index=0 total_energy=-58.3463249206543 stress="-0.05368298292160034 0.008629843592643738 0.029551725834608078 0.008629838936030865 -0.059162214398384094 0.03400873765349388 0.029552383348345757 0.03401022404432297 0.055365242063999176" pbc="T T T"
Mn       0.85456256       1.49814247       2.46137503       0.00012644       0.00121318       0.00163554
Ni       2.61421142       3.38431036       1.49266197      -0.00068230      -0.00064743       0.00092753
Mn       1.69753770       2.40402339       5.75707414      -0.00013503      -0.00091927      -0.01193215
Ni       3.16193046       1.95314541       3.63314255       0.00622992       0.00688665       0.02543989
Mn      -0.05786306       0.52236185       6.74024679      -0.00234628       0.00046234       0.00607639
Ni       2.31556684       1.04351914       0.32573563      -0.00653225      -0.00670153      -0.02549056
Pt       0.30717963       2.92985168       0.32377486       0.00323421       0.00373802       0.00879496
Pt       1.40145661       0.06666986       4.59918157       0.00010532      -0.00403184      -0.00545160
