12
Lattice="6.17855167388916 0.0 -0.03931587561964989 -0.02345195791613234 7.510024646782142 -0.01653328910470009 0.0 0.0 10.745824813842773" Properties=species:S:1:pos:R:3 pbc="T T T"
Eu       3.95528295       3.43042048       2.32906621
Eu       0.84503638       7.17881414       7.53872729
Nd       0.79283786       5.29840015       4.01870673
Nd       4.01843249       1.52785096       5.84574892
Eu       0.85729233       3.39766611       7.54468136
Eu       0.84271419       1.53367600       0.49666067
Eu       3.92555141       1.53173788       9.34487870
Eu       3.88521502       5.28989401       5.79152719
Eu       3.96873273       5.28486163       9.37116946
Eu       0.93225196       1.54083519       4.07958197
Eu       3.94200510       7.15376414       2.32108870
Eu       0.88981589       5.29781882       0.52436638
