14
Lattice="3.085540533065796 0.0 -0.659611701965332 1.385228267285071 6.4942888709656135 -0.6153168678283691 0.0 0.0 8.17414379119873" Properties=species:S:1:pos:R:3 pbc="T T T"
Mn       0.06741585       0.21425527       5.29860975
Mn       1.84709059       5.79826585      -0.56667614
Mn       2.13189925       2.36564386      -0.00902321
O        1.28674363       0.29824756       3.59509487
O        2.45779247       3.06431591       1.85381492
O        1.72049057       3.89793935       6.88207955
Mn       1.19255369       2.36492467       3.37701801
Mn       2.45316840       5.02816760       2.18131669
O        1.55690397       4.54965835       3.98355558
O        3.33039432       5.97747369       5.68272553
O        3.45048140       5.38694305       0.51347644
O        0.56913366       1.21120617       0.25942735
Mn       3.12288768       4.05164708       5.19682136
O        3.06648805       2.27182257       4.48744189
