4
Lattice="3.762073414820557 -0.002639230568474035 0.0013669680492567583 0.004829441738256109 3.7710690317705136 0.03467166932905925 0.0004872337885212123 0.008811616662527345 3.8314564068748393" Properties=species:S:1:pos:R:3:forces:R:3 structure_index=0 total_energy=-16.208772659301758 stress="-0.05467335134744644 0.0072639985010027885 -0.0034871671814471483 0.0072638909332454205 -0.0043242755346000195 -0.06906601041555405 -0.003487045643851161 -0.06906579434871674 -0.07367350161075592" pbc="T T T"
Ga       0.50291446       0.42477578       0.68524677       0.00012407       0.00036466      -0.00044640
Cu       2.38632181       0.42419599       2.59778705      -0.00011223      -0.00214882      -0.00078455
Si       2.38602695       2.31165587       0.69561733       0.00062798      -0.00342250       0.00274296
Cu       0.50856370       2.30913636       2.61806562      -0.00063982       0.00520667      -0.00151204
