11
Lattice="4.4084672927856445 0.0 -0.029122350737452507 -2.0000670789219863 6.76776416730956 -2.5028789043426514 0.0 0.0 10.207197189331055" Properties=species:S:1:pos:R:3 pbc="T T T"
Hg      -0.74471335       3.96067558       4.56387373
Ag       1.39892621       1.89032168       1.93584415
Cl       1.53097082       6.29359353      -0.49823988
Hg       1.51996100       6.27002506       1.96331456
Ag      -0.68995182       6.06842638      -2.00217037
Cl       1.50154182       6.21369162       4.39873308
Ag       3.55710170       1.70845160       8.09847566
Cl      -0.73633744       3.92308163       6.98638441
Cl      -0.74913353       4.00653015       2.13995138
Cl       1.39835025       1.72241354       4.34612725
Cl       1.37527672       1.69450620      -0.53020454
