12
Lattice="4.33286714553833 0.0 -1.0032249689102173 -0.4687965159793462 5.177382361766231 -1.324951410293579 0.0 0.0 5.233989238739014" Properties=species:S:1:pos:R:3 pbc="T T T"
Mn       1.88595605       4.80129143      -1.08350255
Mn       1.83906118       0.45250208       2.92981636
Mn      -0.25319995       3.41494658      -0.86273993
C        2.73141417       4.52077949       2.48199344
Mn       3.56381572       4.23592683       0.79858257
Mn       2.19741174       2.34599043      -0.38879978
C        0.79430362       1.94043305       3.63949928
Mn       3.72826270       1.52955656       1.42978012
Mn       1.53614035       2.99350715       2.19728811
C       -0.14520862       2.65987750       0.91071621
Mn       0.04676303       0.87293301      -0.17455673
C        1.74663502       1.21114872       1.14674956
