8
Lattice="3.8787105083465576 0.0 -0.0011736857704818249 0.007932002846752204 6.771565083200954 -3.926974058151245 0.0 0.0 7.810117721557617" Properties=species:S:1:pos:R:3 pbc="T T T"
Tl       0.64732276       0.87525539       2.91540092
Eu       2.59310250       4.86884800      -0.69844759
Cu       0.65211547       5.30380517      -3.05053941
Eu       2.58766788       0.85199738       0.18471789
Gd       2.59103858       3.60522169       3.21556311
Tl       0.65446138       5.90970210       1.87818414
Cu       0.65167383       3.11065578       0.97270177
Tl       0.64922791       2.50607969       5.73311322
