9
Lattice="3.6701488494873047 0.0 0.570670485496521 1.5614556799983739 6.6182639548019 2.107044219970703 0.0 0.0 12.317580223083496" Properties=species:S:1:pos:R:3 pbc="T T T"
Eu       2.41866102       2.16299770       7.81062789
Eu       3.71497079       2.38811321      11.60718822
Eu       4.22438307       5.64288397       8.31991434
Eu       1.85008715       5.86994703      11.53888006
Al       1.01822025       1.51344340       4.65249392
Al       3.25168086       6.52443075       2.37948404
Eu       2.82996259       4.31320717       5.12770636
Eu       1.44089318       3.72488907       1.91003681
Sc       3.19028547       0.70810045       2.74949683
