12
Lattice="5.660164829745863 0.0031476020960743995 0.0007475163775166803 -2.8326029732699682 4.900283209194301 1.1516003367239441e-05 -0.0011497507350385257 -0.00012297175376154782 8.567951306547371" Properties=species:S:1:pos:R:3:forces:R:3 structure_index=0 total_energy=-97.46849060058594 stress="0.026220960542559624 -5.573334055952728e-05 5.991279977024533e-06 -5.567842163145542e-05 0.025947749614715576 8.336509927175939e-05 5.79481366003165e-06 8.309645636472851e-05 0.02036956511437893" pbc="T T T"
Eu       2.29929808       2.92323268       2.17498134       0.00490355      -0.00186740       0.01360914
Eu      -0.53182040       4.55268016       6.45643751       0.00178008       0.00738941       0.02496542
Pt      -0.52892325       2.95008533       3.75576004      -0.00921346      -0.03440174      -0.00808175
Pt       0.91132410       0.45676878       3.75460009      -0.02482878       0.01060255      -0.00180078
Eu       2.30010330       2.92185087       5.33570660       0.00143259      -0.00119874      -0.01530935
Pt       3.69123668       0.45710536       3.75429780       0.02994846       0.02394441       0.00064563
Pt       3.69013734       2.11997902       8.04117858       0.02579722      -0.01303780      -0.00941538
Eu      -0.53044346       4.55503257       1.05072231      -0.00337314       0.00017671      -0.01553851
Pt       0.91060844       2.11918954       8.03844889      -0.03301913      -0.02317344      -0.00100368
Pt       2.29770349       4.52677349       8.03780351       0.00732917       0.03539467       0.00247552
Ge      -0.52947903       1.28653570       5.89546127      -0.00107333      -0.00225517       0.00761957
Ge      -0.52909253       1.28740745       1.61191376       0.00031677      -0.00157355       0.00183417
