8
Lattice="4.167009353637695 0.0 -0.003509694943204522 -2.083009713762636 6.406156933351685 -0.011425010859966278 0.0 0.0 9.694415092468262" Properties=species:S:1:pos:R:3 pbc="T T T"
Eu       0.77817720       3.79681164       0.59033206
Eu       0.77439913       0.25171707       2.39203248
Eu       2.85874894       1.12316915       9.02950484
Eu       2.85660157       1.12278855       5.44381152
Eu       0.77491680       3.79511819       4.18000258
Eu      -1.30784830       4.67062547       7.23430220
Pt       2.86052851       2.42917698       2.38590897
Pt       0.77334313       2.49340440       7.23413936
