7
Lattice="4.599790096282959 0.0 -1.3274908065795898 -0.3957051975089776 4.582936965939269 -1.3299903869628906 0.0 0.0 8.689583778381348" Properties=species:S:1:pos:R:3 pbc="T T T"
O        2.67546933       2.32889964       4.76284198
Ge       1.12795595       0.64123223       8.03833460
Eu       1.93439836       1.52006061       2.17155176
Eu       2.86531984       0.02737078       5.39846881
Eu       0.36800447       2.31981830       5.39777087
Eu       3.39544969       3.11494803      -1.40474581
Ge       4.20416572       3.99315633       1.42719451
