8
Lattice="4.450009917876806 -0.022513638122174714 0.005652083833894284 -2.1973396270084984 5.537677609554896 0.0053622273833721385 -0.009825446479380264 -0.003849381981158164 6.893764272976632" Properties=species:S:1:pos:R:3:forces:R:3 sample_seed=84000 sample_index_within_seed=0 benchmark_method=TCL dft_verified=F structure_index=0 total_energy=-44.50830841064453 stress="0.03502742201089859 -0.010636096820235252 9.133299317909405e-05 -0.010636096820235252 -0.026050426065921783 -0.0008518982795067132 9.133299317909405e-05 -0.0008518982795067132 0.02292512357234955" pbc="T T T"
Eu       2.38927039       1.79097245       4.83463014       0.00218698       0.00634743      -0.00557671
Eu       2.40533021       3.69039889       1.38544213      -0.00239863      -0.01249770       0.00255811
Zn       2.38750666       0.50017259       1.37894196       0.00069437      -0.04762164       0.00799808
Ge       0.16443321       1.44180987       2.69640264       0.00467573       0.01246739      -0.00894736
Ge       0.16963706       1.44162658       0.07234435       0.00071561       0.01441011       0.00003402
Zn       2.40714439       4.98220403       4.83514011      -0.00107390       0.03920779      -0.00205384
Ge       0.17989541       4.05426198       3.51773735      -0.00397723      -0.00660606       0.01091648
Ge       0.17499880       4.05143480       6.14038238      -0.00082299      -0.00570731      -0.00492872
8
Lattice="4.6886254602294875 0.032934093151487265 -2.1401103964674473 -2.7655092139696484 4.259220505669472 -0.8700469462208893 0.011957107502276052 -0.021681654471539327 5.154895037497671" Properties=species:S:1:pos:R:3:forces:R:3 sample_seed=84001 sample_index_within_seed=0 benchmark_method=TCL dft_verified=F structure_index=0 total_energy=-74.4310302734375 stress="-0.042012330144643784 0.005383429583162069 0.0037627227138727903 0.005383429583162069 -0.04318269342184067 -0.003627004800364375 0.0037627227138727903 -0.003627004800364375 -0.043277278542518616" pbc="T T T"
Fe      -0.05863409       3.55160638       1.26356857       0.00189199       0.00624699      -0.00352599
Fe       4.35730048       0.37943703      -0.44350484      -0.00308914      -0.00070595       0.00453490
N        0.08558087       4.08996638      -0.46269126       0.02320708       0.00809818       0.02115112
Eu       1.31852751       1.43582023      -0.87942901      -0.00157324      -0.00898204       0.00428433
N        0.49421195       1.94856373       1.90802323      -0.03866661       0.01688620      -0.00452518
Eu       2.98019533       2.50023375       1.69895879      -0.00051029      -0.00563759       0.00511673
N        3.80940267       0.45213284       2.98799133       0.00108149      -0.03730288       0.00866802
N       -1.85646377       3.45759496       1.48844166       0.01765886       0.02139718      -0.03570396
16
Lattice="5.005141382741819 0.038250919098399776 -0.31624448276023337 0.034330147459740855 5.000086255873949 -0.34553910601320165 -0.02706183087638709 0.007750055624784334 6.421099305462483" Properties=species:S:1:pos:R:3:forces:R:3 sample_seed=84002 sample_index_within_seed=0 benchmark_method=TCL dft_verified=F structure_index=0 total_energy=-143.39126586914062 stress="0.03724195435643196 -0.0034658738877624273 -0.001765685505233705 -0.0034658738877624273 0.03628458082675934 -0.0014942371053621173 -0.001765685505233705 -0.0014942371053621173 0.038819730281829834" pbc="T T T"
Mn       2.44525498       1.33253345       3.89058426       0.00816940       0.00633170      -0.01150932
Mn       4.43805102       1.46772698      -0.12737620      -0.00586202       0.00228697       0.00359955
Mn       1.66050620       4.85351241       1.83644404       0.00055125       0.00408778       0.00667106
Mn       4.20014433       0.53356781       2.06202034      -0.03138566       0.00926550      -0.00457324
Mn       3.44812179       3.07589116       1.85331547       0.00850363      -0.01233120      -0.00895825
P        3.45635435       3.05699996       5.05847668      -0.01737393       0.00696835       0.00273494
Mn       1.76360342       2.21321003      -0.27033714      -0.00286943      -0.01819193       0.01315628
Mn       0.98443921       2.29108842       1.96896366      -0.01579511       0.02591421       0.01126582
Mn       0.20196236       4.02827106       0.11288939      -0.00554053       0.00424281       0.02694737
Mn       2.61595807       4.85244867      -0.32549230      -0.00503325      -0.02934065       0.01270680
Mn       1.65817716       3.92043338       4.01281200       0.02419379       0.01390263      -0.02156058
C        2.63755285       1.37153800       1.27829183       0.00677526      -0.01477510       0.00481341
Mn       0.04382276       2.06470245       4.15870996       0.00650828      -0.00147741       0.00155991
C        0.91183468       0.56482108       5.39253596      -0.00683023       0.00736122      -0.01008246
C        0.14360310       3.85033736       2.75343460       0.01305331      -0.00224692      -0.02087262
Mn       4.29527005       4.77736021       3.96530828       0.02293509      -0.00199810      -0.00589870
10
Lattice="3.9074271576061235 -0.010304443429477365 -0.045422467628109066 0.010365590715502299 3.8938686059709253 0.007960934523762042 -0.2714049885302175 -0.03782506637410098 17.754604088490083" Properties=species:S:1:pos:R:3:forces:R:3 sample_seed=84003 sample_index_within_seed=0 benchmark_method=TCL dft_verified=F structure_index=0 total_energy=-90.79228210449219 stress="0.008066949434578419 1.1682999684126116e-05 -0.0027316303458064795 1.1682999684126116e-05 0.012952357530593872 -2.4233031581388786e-05 -0.0027316303458064795 -2.4233031581388786e-05 0.008937028236687183" pbc="T T T"
Gd       3.44718388       3.33330836      16.87317456      -0.00739270       0.00032922      -0.00468147
Gd       3.26784199       3.35639471       6.72697555       0.01378880      -0.00003106       0.02798328
Gd       1.38104142       1.39614032      14.56500914       0.02720804       0.00055644      -0.00890003
Co       1.20076310       1.40295638      11.83754826       0.03332321      -0.00003183       0.00557941
La       3.17777517       3.34468489      11.84429643       0.03005146      -0.00003204      -0.00868769
Gd       1.30239671       1.40991702       9.08006071      -0.00461188      -0.00037796       0.00681898
Co       1.80174026       1.42761759       0.02361173      -0.03063699      -0.00011154      -0.00901614
I        1.33125919       1.41824358       4.95314819       0.02388746       0.00017117       0.00350592
Co       3.77461660       1.42028977       1.12804342      -0.03725532      -0.00009212      -0.02070338
Dy       1.83838481       3.37034168       2.15718182      -0.04836211      -0.00038034       0.00810108
7
Lattice="4.118559598421522 0.004223081288389204 -0.0018138606222970264 -2.0653040197581793 4.4924919876694265 -2.2496976524466565 0.0031965032738022893 -0.0715630700029641 7.040581473497023" Properties=species:S:1:pos:R:3:forces:R:3 sample_seed=84004 sample_index_within_seed=0 benchmark_method=TCL dft_verified=F structure_index=0 total_energy=-58.586238861083984 stress="-0.029627397656440735 -0.0005482169799506664 -0.0007427546079270542 -0.0005482169799506664 -0.023769868537783623 0.009188917465507984 -0.0007427546079270542 0.009188917465507984 -0.00962501484900713" pbc="T T T"
Al      -0.79254352       4.28609620       2.76726340      -0.00023772       0.00683894      -0.00304375
Al      -0.79230674       2.98835896       0.33531422      -0.00027767       0.00321419       0.00015163
Fe       1.26765511       1.93544232      -0.51667169       0.00046269       0.02160959      -0.02574301
Gd       1.26468180       4.25672244      -1.91052480      -0.00016000       0.00001999       0.01243201
Al       3.33011543       1.62384632       4.94351818      -0.00115686      -0.00667194      -0.00691890
Fe       1.26624160       4.04645859       1.18431292       0.00007078      -0.01900695       0.02883660
Gd       1.26874273       1.72713563       2.57787012       0.00129873      -0.00600383      -0.00571463
4
Lattice="4.8195582100376235 -0.04026124231825087 -2.7366446150535513 -1.52238475809193 4.576007323904617 -2.7326409217000514 -0.04290371239453579 -0.06508549790015045 5.532282593158208" Properties=species:S:1:pos:R:3:forces:R:3 sample_seed=84005 sample_index_within_seed=0 benchmark_method=TCL dft_verified=F structure_index=0 total_energy=-23.386621475219727 stress="0.017023354768753052 -0.027223292738199234 -0.012203111313283443 -0.027223292738199234 -0.00045842904364690185 -0.021012088283896446 -0.012203111313283443 -0.021012088283896446 -0.0038642811123281717" pbc="T T T"
Eu       0.34982712       0.74144769       0.30425019      -0.01067675       0.00195978       0.00491858
Hg       3.55603769       1.82380587       0.33429683       0.00476043      -0.00109361       0.00417684
Eu       1.99117353       3.00993332      -2.42583996       0.01055442       0.00021423      -0.00851681
Hg       0.39062414       4.13195063       0.33915490      -0.00463810      -0.00108040      -0.00057861
10
Lattice="3.88935841091346 0.0007033809153254645 -0.002567897128893935 -0.0010905976301420232 5.325979854007348 -0.07034720519747217 0.0035323393635129925 -0.024118882695107428 5.326530031176696" Properties=species:S:1:pos:R:3:forces:R:3 sample_seed=84006 sample_index_within_seed=0 benchmark_method=TCL dft_verified=F structure_index=0 total_energy=-84.97310638427734 stress="-0.028900479897856712 -3.9079786802176386e-05 1.2674964636971708e-05 -3.9079786802176386e-05 -0.033739347010850906 -0.002426289953291416 1.2674964636971708e-05 -0.002426289953291416 -0.03358359634876251" pbc="T T T"
Mn       3.22672752       0.82169965       3.15765464       0.00023851      -0.02186920       0.01818453
Mn       3.22436112       3.65897347       0.29661472      -0.00007678       0.01711306      -0.02314032
Mn       1.28065425       4.63275552       1.98762554      -0.00045398       0.00120281       0.00144333
Mn       1.28227357       5.26450965       4.72697096       0.00005793       0.01917019       0.01779316
C        1.27971429       3.63729645       0.35088013      -0.00001759       0.00113867      -0.00151144
V        1.28084462       1.97109155       1.46196204      -0.00039300       0.00962647       0.00904405
Ge       3.22611274       3.50797853       2.98388966       0.00040448      -0.03507055      -0.03439549
Mn       1.28238005       2.51982280       4.11912483      -0.00012054       0.00048868       0.00160315
C        1.28200388       0.87448735       3.13767380       0.00040576      -0.00153943      -0.00034375
Si       3.22497251       0.89443280       0.39172940      -0.00004473       0.00973925       0.01132266
10
Lattice="3.592924319017363 -0.0019934269419270277 0.9340628208035061 1.6191852950130987 4.877514396118662 1.1599690144242292 0.1573726150658438 -0.18507964337200525 6.770838975949915" Properties=species:S:1:pos:R:3:forces:R:3 sample_seed=84007 sample_index_within_seed=0 benchmark_method=TCL dft_verified=F structure_index=0 total_energy=-92.9678726196289 stress="-0.03842391446232796 -0.0007023409707471728 -0.013747187331318855 -0.0007023409707471728 -0.04990508407354355 0.0031622149981558323 -0.013747187331318855 0.0031622149981558323 0.010720686987042427" pbc="T T T"
Eu       3.26204821      -0.00093820       6.57131262      -0.00233871       0.03471110       0.00935839
C        2.55069455       1.63223124       1.93967094       0.00045813      -0.04559419      -0.00295872
Eu       2.18962075       4.38623004       3.32976655       0.00283415      -0.01540376      -0.01096502
Mn       1.99875401       1.53474828       4.05656708       0.00333556       0.00625043      -0.01275638
Mn       0.82642962       2.29406134       1.19649370      -0.00785461      -0.00275764       0.02996744
C        2.91037947       2.63633659       7.93481154       0.00313934      -0.04322900      -0.01163898
Mn       3.45690570       2.85455858       5.82808104      -0.00131203       0.00583125       0.00517642
C        1.55588077       2.28184179       5.76250746       0.00067128       0.00751400      -0.00233425
C        3.53439665       4.63900615       5.53413749      -0.00122742       0.01020848       0.00482656
C        3.91022270       2.18812972       4.08334708       0.00229428       0.04246930      -0.00867582
