8
Lattice="4.059485912322998 0.0 0.011685275472700596 -2.0063059430565757 6.535779644908144 0.01852000504732132 0.0 0.0 9.971391677856445" Properties=species:S:1:pos:R:3 pbc="T T T"
Eu      -0.43981089       5.63193702       3.34764075
Eu       1.56971376       1.05936799       8.32126924
Eu      -0.45683843       1.93309410       1.48962963
Eu      -0.45223064       1.92805588       5.17371191
Eu       1.58260089       4.76048264       0.20392316
Eu       1.58462224       4.76584108       6.50069500
Cu       1.57940905       3.31202885       3.34652535
Cu      -0.45064404       3.38567999       8.31943197
