10
Lattice="4.712623596191406 0.0 2.4938511848449707 1.7041400832697633 4.388885648966919 2.497756242752075 0.0 0.0 5.7167887687683105" Properties=species:S:1:pos:R:3 pbc="T T T"
Mn       2.17337079       1.51277673       4.63995085
Gd       3.54147506       2.44897510       7.76207972
O        4.12498627       1.86577594       4.36499791
Mn       5.27295144       3.63182064       4.48958304
O        2.18638562       0.57391494       2.87036359
Fe       0.19067199       0.15667913       2.68276415
O        5.02619856       0.88055152       7.14063609
O        1.96092224       2.70752225       6.18200415
O        2.87622258       0.00735358       5.68846051
O        1.82119192       3.20374840       3.63285488
