9
Lattice="4.111853422209889 0.0025675930760569107 -0.0004576139334432228 2.0530301158917448 4.188137441855396 1.0086889846772777 0.00045683905386674517 -0.005581669228615105 6.267772990160238" Properties=species:S:1:pos:R:3:forces:R:3 structure_index=0 total_energy=-69.74131774902344 stress="-0.007474031765013933 0.0002976593386847526 -0.0008299077162519097 0.00029908266151323915 -0.04026364907622337 -0.007389446254819632 -0.0008304766961373389 -0.007390397600829601 -0.004121010657399893" pbc="T T T"
Si       2.91043153       2.94322635       5.58142477       0.00071988       0.03686704       0.01503886
Fe       0.85572424       1.52332502       5.15914710       0.00024239      -0.02422095      -0.03570960
Fe       2.91006381       3.78414102       1.55593315       0.00554883       0.01546899       0.00360788
Fe       2.91175980       2.08885425       3.34393103       0.00098995      -0.02714740      -0.00353767
Fe       4.96800379       2.53077400       1.22216735      -0.00636683      -0.01772030      -0.01132788
Si       4.96711927       3.36458113       3.46355038      -0.00101399      -0.02834867      -0.01649134
Fe       2.91261417       0.03241983       4.69168528      -0.00018101       0.02429593       0.00593040
Fe       0.85702970       0.59541941       2.87668391      -0.00009077       0.02161418       0.04020101
Pt       2.91248440       1.06328445       0.88398271       0.00015161      -0.00080906       0.00228829
