12
Lattice="5.430056571960449 0.0 -0.0023901178501546383 -0.0013167780505017124 7.591270809410671 0.09539908915758133 0.0 0.0 10.102180480957031" Properties=species:S:1:pos:R:3 pbc="T T T"
Eu       3.49080941       6.30251478       5.37048746
Eu       3.49001106       5.24220700       9.14830656
Eu       3.48935130       2.61530522       6.26120657
Eu       0.77582223       0.29520173       7.70471540
Tl       3.48942069       4.80128653       2.40732664
Eu       3.48939265       1.51980408       2.64465816
Tl       0.77756103       4.48921722       7.20484742
Eu       0.77534639       6.70749315       1.50685990
Eu       0.77547843       2.97243924       0.38922223
Mg       0.77579386       3.98346011       4.04568296
Tl       0.77495871       0.86062961       4.44497591
Tl       3.48912100       1.04964680       9.47705191
