12
Lattice="4.040713787078857 0.0 0.0048832050524652 -2.0228331462292317 3.500970753031177 -0.0019248205935582519 0.0 0.0 10.21969223022461" Properties=species:S:1:pos:R:3 pbc="T T T"
Fe       2.32483900       2.56383193       6.61520444
Fe       2.32697163       0.22618771       9.96425177
Fe       2.32486780       0.22962117       7.51077052
Fe       0.30264351       1.40095798       5.74715296
Ge       0.30686757       1.39394869       0.43121559
Fe       2.32365286       2.55975563       1.45513728
Fe       2.32338421       2.56572254       4.00971635
Fe       0.30446900       1.39504104       8.20821664
Ge       2.32471563       0.22826317       2.35006182
Fe       0.30301812       1.39849319       3.13355191
Fe       2.32542549       2.56084411       9.09539832
Ge       2.32467814       0.23360612       5.08058149
